15
diethyl_ether ((C2H5)2O) — obabel --gen3d (MMFF94)
C          1.08875        0.02601       -0.04309
C          2.60505        0.00136       -0.02505
O          3.10119        1.08110       -0.81507
C          4.52809        1.09886       -0.82807
C          5.00455        2.26076       -1.67821
H          0.68029       -0.79212        0.55553
H          0.71227       -0.06417       -1.06777
H          0.71227        0.97536        0.35296
H          2.96360       -0.94967       -0.43578
H          2.96360        0.10503        1.00568
H          4.90326        0.15759       -1.24586
H          4.90326        1.21220        0.19549
H          4.62836        2.17067       -2.70293
H          6.09665        2.29875       -1.70601
H          4.62836        3.21017       -1.28223
