12
dmf (HCON(CH3)2) — obabel --gen3d (MMFF94)
C          0.99630       -0.09630       -0.02148
N          2.44417       -0.07937       -0.03155
C          3.15394        0.98810       -0.70684
C          3.16728       -1.07344        0.59488
O          4.38905       -1.14580        0.63848
H          0.58597        0.76016       -0.56239
H          0.64982       -0.07613        1.01603
H          0.65072       -1.02412       -0.48740
H          2.46048        1.70212       -1.15752
H          3.78951        0.55430       -1.48471
H          3.79025        1.50404        0.01852
H          2.52437       -1.83111        1.07332
