14
ethyl_acetate (CH3COOC2H5) — obabel --gen3d (MMFF94)
C          2.59008       -0.89561       -1.29666
C          2.57159        0.06260       -0.12004
O          3.03948        1.35833       -0.52401
C          4.38945        1.52427       -0.51620
C          4.75765        2.91220       -0.94614
O          5.21059        0.66948       -0.21152
H          2.19625       -1.87352       -1.00621
H          3.60657       -1.02952       -1.67982
H          1.98839       -0.50188       -2.12204
H          3.15692       -0.32332        0.72262
H          1.54333        0.18903        0.23489
H          3.86468        3.51763       -1.12660
H          5.33613        2.86131       -1.87181
H          5.34183        3.38907       -0.15519
