10
ethylene_glycol (HOCH2CH2OH) — obabel --gen3d (MMFF94)
O          1.00560       -0.04909       -0.12720
C          2.43221       -0.06081       -0.07845
C          2.97118       -0.11425       -1.50327
O          2.52239        1.03085       -2.22592
H          0.69382       -0.00774        0.79406
H          2.76094       -0.93255        0.49450
H          2.75604        0.85648        0.42233
H          2.60053       -1.00059       -2.02800
H          4.06424       -0.12411       -1.50971
H          1.55935        1.06902       -2.06200
