14
glycerol (C3H8O3) — obabel --gen3d (MMFF94)
O          2.79454       -0.04778        1.38367
C          2.35868        0.12092        0.04334
C          2.90896       -0.98732       -0.85472
O          2.40903       -0.80958       -2.18540
C          4.44469       -1.02021       -0.85221
O          4.93428       -1.97952       -1.79102
H          2.35123        0.63465        1.91593
H          2.68246        1.10440       -0.31519
H          1.26410        0.11134        0.02082
H          2.54031       -1.95915       -0.50652
H          3.05471       -0.26692       -2.67348
H          4.83801       -1.27149        0.13756
H          4.85425       -0.05080       -1.15364
H          4.30233       -2.72557       -1.81125
