12
isopropanol ((CH3)2CHOH) — obabel --gen3d (MMFF94)
C          0.93741        0.05731        0.06104
C          2.45803        0.07932        0.04014
C          2.99345        1.04574       -1.00507
O          2.94021        0.46152        1.32441
H          0.53190       -0.25643       -0.90570
H          0.53244        1.04519        0.30690
H          0.57613       -0.63150        0.83242
H          2.83561       -0.92786       -0.16546
H          2.66518        2.07051       -0.79900
H          2.66134        0.76730       -2.00991
H          4.08868        1.05718       -0.98901
H          2.60902        1.35576        1.51479
