15
n_butanol (C4H9OH) — obabel --gen3d (MMFF94)
C          1.05596       -0.07362        0.02441
C          2.57458       -0.06477        0.03090
C          3.11234        1.07203        0.89276
C          4.63357        1.08630        0.90105
O          5.10393        2.15367        1.71255
H          0.68258       -0.89308       -0.59842
H          0.66150        0.86538       -0.37644
H          0.66158       -0.20824        1.03652
H          2.94043        0.04077       -0.99689
H          2.94112       -1.02631        0.40855
H          2.74352        0.97855        1.92202
H          2.73805        2.03640        0.52719
H          5.03594        1.21394       -0.10961
H          5.02831        0.15084        1.31103
H          4.76425        2.98066        1.33296
