23
n_heptane (C7H16) — obabel --gen3d (MMFF94)
C          0.88110        0.00885        0.02141
C          2.39675        0.00673        0.01834
C          2.92335       -0.02107       -1.41300
C          4.44537       -0.02167       -1.42390
C          4.96298       -0.04895       -2.85498
C          6.48826       -0.04916       -2.87426
C          6.99640       -0.07664       -4.30194
H          0.50378        0.02865        1.04577
H          0.48877       -0.88798       -0.47087
H          0.49113        0.88759       -0.50429
H          2.76346       -0.86548        0.56817
H          2.76570        0.89827        0.53488
H          2.54986        0.85056       -1.96220
H          2.54923       -0.91352       -1.92873
H          4.82150       -0.89481       -0.87496
H          4.82140        0.87112       -0.90932
H          4.58571        0.82269       -3.40150
H          4.58526       -0.94138       -3.36815
H          6.86846       -0.92082       -2.33276
H          6.86839        0.84291       -2.36687
H          6.64683       -0.97480       -4.82317
H          8.08813       -0.07691       -4.31616
H          6.64682        0.80075       -4.85744
