20
n-hexane (C6H14) — all-trans staggered
C  -3.87493   1.23627   0.00000
C  -2.37919   1.31097   0.00000
C  -1.77234   0.00000   0.00000
C  -0.27660   0.07470   0.00000
C   0.33025  -1.24127   0.00000
C   1.82599  -1.16657   0.00000
H  -4.30277   2.22996   0.00000
H  -4.24640   0.70343  -0.88565
H  -4.24640   0.70343   0.88565
H  -2.01135   1.84281   0.88565
H  -2.01135   1.84281  -0.88565
H  -2.12939  -0.53184   0.88565
H  -2.12939  -0.53184  -0.88565
H   0.08144  -0.45704   0.88565
H   0.08144  -0.45704  -0.88565
H  -0.02581  -1.77311  -0.88565
H  -0.02581  -1.77311   0.88565
H   2.18443  -0.63473  -0.88565
H   2.18443  -0.63473   0.88565
H   2.20828  -2.16009   0.00000
