17
n_pentane (C5H12) — obabel --gen3d (MMFF94)
C          1.03246        0.04470       -0.04760
C          2.55295        0.05974       -0.05156
C          3.08769        1.44283       -0.41778
C          4.61508        1.46934       -0.42481
C          5.13558        2.85017       -0.79042
H          0.66250       -0.95070        0.21596
H          0.63633        0.30541       -1.03415
H          0.63634        0.75948        0.68067
H          2.91964       -0.68473       -0.76750
H          2.91962       -0.23290        0.93896
H          2.71134        2.18313        0.29885
H          2.71134        1.73149       -1.40687
H          4.99873        0.73629       -1.14392
H          4.99874        1.18821        0.56283
H          4.79141        3.14654       -1.78647
H          6.22964        2.85623       -0.79203
H          4.79141        3.60060       -0.07154
