12
n_propanol (C3H7OH) — obabel --gen3d (MMFF94)
C          1.04654       -0.07812        0.01477
C          2.56423       -0.08281        0.04438
C          3.09810       -0.25581        1.45912
O          4.51883       -0.25423        1.44302
H          0.68610        0.04759       -1.01085
H          0.64537        0.74185        0.61904
H          0.64478       -1.01940        0.40320
H          2.94930        0.85100       -0.38236
H          2.94590       -0.88688       -0.59625
H          2.75655       -1.19703        1.90171
H          2.76722        0.56530        2.10280
H          4.80602       -1.00176        0.89066
