16
nmp (C5H9NO) — obabel --gen3d (MMFF94)
C         -1.35300        1.63492       -0.05524
N         -0.22719        0.74166       -0.19529
C          1.11156        1.15304        0.13754
C          1.93759       -0.08404       -0.15237
C          0.98858       -1.23727        0.14959
C         -0.37858       -0.63398       -0.07334
O         -1.43024       -1.25488       -0.06910
H         -1.04575        2.66002       -0.27515
H         -1.73489        1.56638        0.96733
H         -2.14259        1.32902       -0.74688
H          1.14684        1.42323        1.19702
H          1.41148        2.00680       -0.47797
H          2.85797       -0.12589        0.43728
H          2.21691       -0.10933       -1.21322
H          1.06756       -1.55419        1.19328
H          1.15503       -2.08503       -0.51856
