15
tert_butanol ((CH3)3COH) — obabel --gen3d (MMFF94)
C          1.06161       -0.06108       -0.02419
C          2.58900       -0.04667       -0.04954
C          3.11619       -0.54264       -1.39486
C          3.11509        1.35588        0.24626
O          3.06991       -0.91604        0.97677
H          0.63989        0.60005       -0.78808
H          0.68490        0.25429        0.95549
H          0.67675       -1.07391       -0.19198
H          2.78388        0.09753       -2.21840
H          2.77870       -1.56658       -1.59425
H          4.21175       -0.57236       -1.39737
H          2.78211        2.07804       -0.50657
H          4.21076        1.36493        0.27442
H          2.77773        1.70081        1.23043
H          2.73707       -1.81121        0.79235
