13
thf (C4H8O) — obabel --gen3d (MMFF94)
C         -1.09135        0.73079        0.22001
C         -1.10920       -0.71024       -0.22155
C          0.29368       -1.16510        0.11687
O          1.14450       -0.01634        0.00132
C          0.32086        1.14999       -0.12865
H         -1.24185        0.78939        1.30417
H         -1.85023        1.34846       -0.26622
H         -1.26889       -0.76462       -1.30471
H         -1.88117       -1.30936        0.26837
H          0.64985       -1.95521       -0.55021
H          0.35640       -1.52510        1.14910
H          0.38857        1.49303       -1.16666
H          0.69667        1.94188        0.52536
