22
alanine dipeptide (Ace-Ala-NMe), MMFF-optimized
C     -2.84582516     1.28428709    -0.86098460
C     -2.08790089     0.44392850     0.13103626
O     -2.55304981     0.15010549     1.22632507
N     -0.84538604     0.04509450    -0.29734300
C     -0.02511430    -0.88537507     0.48207853
C     -0.37067510    -2.32966399     0.14370174
C      1.47117184    -0.59006079     0.24759657
O      2.34528650    -1.45109797     0.27546922
N      1.75185820     0.76015353     0.12623722
C      3.10949279     1.23946599     0.10090522
H     -2.21113769     1.59855687    -1.69415680
H     -3.68474140     0.70381402    -1.25358775
H     -3.21920996     2.18056188    -0.35799808
H     -0.58770563     0.18305616    -1.26705893
H     -0.21831643    -0.71309894     1.54795642
H     -1.43124353    -2.53398684     0.32456599
H      0.21736996    -3.02764945     0.74883053
H     -0.16436139    -2.54684212    -0.91044948
H      1.00939313     1.40142009     0.38296956
H      3.50639073     1.22138211     1.11932216
H      3.10953230     2.26357891    -0.27892820
H      3.72417190     0.60237001    -0.54060647
