22
Structure 1, Energy = -932.173982 kcal/mol
C -2.62261152 1.41096783 -0.98594451
C -1.59098935 0.85421306 -0.04231151
O -1.23138583 1.47101724 0.94973660
N -1.09646595 -0.36304417 -0.35486123
C -0.11296211 -1.05331385 0.46038955
C -0.23153196 -2.55044007 0.28505540
C 1.31306112 -0.57428396 0.14288795
O 2.12689543 -1.29507077 -0.40470061
N 1.55119801 0.68767583 0.53998286
C 2.81276250 1.34271824 0.31656912
H -3.57302332 1.48628771 -0.45633253
H -2.32298136 2.41836548 -1.27198207
H -2.76381874 0.80650157 -1.88133419
H -1.37575650 -0.79635072 -1.21688414
H -0.33211240 -0.77709770 1.49362338
H -1.23908114 -2.87783813 0.54089707
H 0.48427764 -3.05805445 0.92893595
H -0.00247321 -2.84176207 -0.74075127
H 0.77111006 1.19951725 0.93168348
H 3.50959587 0.60684323 -0.07876989
H 3.21150279 1.74577904 1.24838364
H 2.71478176 2.15734911 -0.40429491
