22
Structure 1, Energy = -932.173982 kcal/mol
C -2.62261152 1.41096783 -0.98594451
C -1.59098935 0.85421306 -0.04231151
O -1.23138583 1.47101724 0.94973660
N -1.09646595 -0.36304417 -0.35486123
C -0.11296211 -1.05331385 0.46038955
C -0.23153196 -2.55044007 0.28505540
C 1.31306112 -0.57428396 0.14288795
O 2.12689543 -1.29507077 -0.40470061
N 1.55119801 0.68767583 0.53998286
C 2.81276250 1.34271824 0.31656912
H -3.57302332 1.48628771 -0.45633253
H -2.32298136 2.41836548 -1.27198207
H -2.76381874 0.80650157 -1.88133419
H -1.37575650 -0.79635072 -1.21688414
H -0.33211240 -0.77709770 1.49362338
H -1.23908114 -2.87783813 0.54089707
H 0.48427764 -3.05805445 0.92893595
H -0.00247321 -2.84176207 -0.74075127
H 0.77111006 1.19951725 0.93168348
H 3.50959587 0.60684323 -0.07876989
H 3.21150279 1.74577904 1.24838364
H 2.71478176 2.15734911 -0.40429491
22
Structure 2, Energy = -930.884972 kcal/mol
C -3.38882661 0.91708893 -0.99951631
C -2.44050002 0.22047892 -0.05546048
O -2.81123710 -0.35545871 0.95114398
N -1.13841307 0.28849691 -0.40652040
C -0.09736871 -0.30574214 0.38343039
C -0.09232680 -1.83082485 0.29882738
C 1.21678054 0.28531885 -0.10977362
O 1.29947031 0.86316442 -1.17847812
N 2.26110363 0.09525694 0.71887451
C 3.58146763 0.59087551 0.42774281
H -3.27327752 0.54502112 -2.01919413
H -4.40754318 0.74381006 -0.66338849
H -3.19404840 1.99130154 -1.01569200
H -0.82674909 0.77053475 -1.23566067
H -0.24544899 -0.01991182 1.42968071
H -1.06004214 -2.20400548 0.63028598
H 0.67992538 -2.25230622 0.94385827
H 0.09035619 -2.16135359 -0.72414714
H 2.08893037 -0.33796456 1.60814738
H 3.81211615 1.49004745 1.00397265
H 3.61760497 0.84013444 -0.63038242
H 4.32797766 -0.17393678 0.64210248
22
Structure 3, Energy = -930.852599 kcal/mol
C -3.38553095 0.65067786 -1.24485493
C -2.43797827 0.21790074 -0.15490840
O -2.83434343 -0.13490039 0.94179726
N -1.12759280 0.23966962 -0.47527510
C -0.10491572 -0.16311421 0.44907075
C -0.10819867 -1.66901946 0.70242834
C 1.22280622 0.30195355 -0.13572703
O 1.32060862 0.67057544 -1.29212713
N 2.25943136 0.25992501 0.72268564
C 3.60465574 0.59552687 0.33239472
H -4.04217720 1.42398858 -0.84753805
H -2.88310456 1.02736068 -2.13572598
H -4.00989485 -0.19902416 -1.52303946
H -0.79648507 0.54539883 -1.37703204
H -0.27186260 0.34653148 1.40352988
H -1.08274865 -1.95748031 1.09285414
H 0.65177119 -1.94241691 1.43600905
H 0.08645875 -2.21561718 -0.22078854
H 2.09217000 -0.06761162 1.65679932
H 3.55609798 1.19252110 -0.57558328
H 4.20040226 -0.29758531 0.12737605
H 4.08893061 1.17577708 1.11735642
22
Structure 4, Energy = -930.152014 kcal/mol
C -2.73192143 1.44202781 -0.59237188
C -1.49158776 0.58931899 -0.59297025
O -0.75717032 0.54272264 -1.56915247
N -1.26270866 -0.10211625 0.54332078
C -0.18006031 -1.04973471 0.77509135
C -0.11307202 -2.15099931 -0.27506480
C 1.18669200 -0.37929857 0.98239046
O 1.79745424 -0.54464561 2.02352571
N 1.63984740 0.33247402 -0.05891702
C 2.90091538 1.02486312 -0.00823648
H -2.45008731 2.46774554 -0.82906145
H -3.39654946 1.09148502 -1.38244808
H -3.26858091 1.42689693 0.35566473
H -1.90560603 0.03588745 1.30006957
H -0.38819611 -1.50332284 1.74310911
H -1.05110466 -2.70691872 -0.29160061
H 0.69782585 -2.83649135 -0.02701104
H 0.06086022 -1.74406850 -1.26973140
H 1.01231778 0.46434557 -0.84341675
H 2.79975867 2.02280331 0.42594841
H 3.30459785 1.12052846 -1.01488721
H 3.59676576 0.45666099 0.60592848
22
Structure 5, Energy = -929.330207 kcal/mol
C -3.05717707 1.20848894 -1.01751101
C -2.05987191 0.73247576 0.01007850
O -2.02908897 1.17794955 1.14114523
N -1.20298636 -0.22846447 -0.42229310
C -0.12493622 -0.72431034 0.39694324
C -0.12536001 -2.24514008 0.44403917
C 1.20284665 -0.23075153 -0.17022093
O 1.51241982 -0.45722353 -1.32565999
N 1.98153758 0.43265021 0.70608944
C 3.26593089 0.97700840 0.34613764
H -2.70209599 2.14510012 -1.45097125
H -3.21000719 0.49115756 -1.82379198
H -4.00397825 1.40684521 -0.51935613
H -1.18060982 -0.46935925 -1.39831686
H -0.29116359 -0.31340253 1.39158428
H -1.08540106 -2.60815930 0.80875903
H 0.66540033 -2.60783243 1.10142386
H 0.05192333 -2.64857459 -0.55356967
H 1.59709954 0.63820583 1.61104357
H 3.55361915 0.53974175 -0.60699838
H 4.01335621 0.72083384 1.09735155
H 3.22862267 2.06276011 0.23407781
22
Structure 6, Energy = -927.853472 kcal/mol
C -2.66486573 1.27568412 -0.90427947
C -1.46292651 0.36641356 -0.81867737
O -0.87520415 -0.04594988 -1.79434311
N -1.08558202 0.06421039 0.45865670
C -0.09988650 -0.94455701 0.81069750
C -0.37445179 -2.30305552 0.18847887
C 1.36316872 -0.54268903 0.56481117
O 2.24017978 -1.37696755 0.67319667
N 1.58638549 0.75723416 0.29889655
C 2.90238714 1.27429926 0.02840803
H -2.84755230 1.52195811 -1.94644797
H -3.54454160 0.77681601 -0.49289224
H -2.50581646 2.19347000 -0.33435202
H -1.68136883 0.39561054 1.19513750
H -0.16624506 -1.04589820 1.89891350
H -1.35351479 -2.66553330 0.50155741
H 0.39596725 -3.00138664 0.50819612
H -0.35476398 -2.23276114 -0.89792424
H 0.78374255 1.34566557 0.17353779
H 3.61949754 0.49019694 0.26111317
H 3.11116052 2.14642692 0.64930838
H 3.01484394 1.55103421 -1.02179527
22
Structure 7, Energy = -926.686475 kcal/mol
C -2.95450139 1.29276431 -0.78072804
C -2.27227402 0.10616060 -0.14754263
O -2.86826396 -0.89531398 0.18552770
N -0.92104435 0.24518460 -0.00572792
C -0.13889608 -0.70498675 0.76835012
C -0.08889864 -2.07960010 0.11339337
C 1.27218044 -0.17033157 0.96105623
O 1.85711920 -0.27663192 2.01850104
N 1.80577922 0.40878421 -0.14257705
C 3.16808105 0.87360924 -0.18302949
H -2.52924919 1.50190234 -1.76421309
H -4.01468039 1.07706285 -0.88075864
H -2.82655931 2.18620110 -0.16616914
H -0.55730617 1.17954886 -0.09002185
H -0.55174911 -0.80516475 1.77537835
H -1.09404206 -2.48750424 0.04318003
H 0.52638626 -2.74249983 0.72150540
H 0.34030780 -2.02490020 -0.88845462
H 1.28609359 0.34409797 -1.00111532
H 3.56327581 0.81895232 0.82859796
H 3.21596742 1.90593851 -0.53264797
H 3.78227353 0.24655034 -0.83250177
