22
Mode 0, Freq: -5.5542 cm⁻¹, Force Const: 1.134425e-04 eV/Å²
C       -2.63922453       1.40241468      -0.98355371       0.00000000      -0.01887964       0.01174187
C       -1.59257531       0.86014408      -0.04761668       0.03263070       0.03765720       0.00800594
O       -1.22461414       1.48694646       0.93502694       0.10237952       0.11871302      -0.06981327
N       -1.09454215      -0.35613394      -0.35776803      -0.01956535      -0.00612749       0.09590449
C       -0.11074745      -1.04680049       0.45681641       0.00222452       0.04084294       0.10942270
C       -0.23081213      -2.54309654       0.27696225      -0.05154675       0.02758890       0.25557253
C        1.31747937      -0.57210827       0.14318791       0.00005731      -0.03093773      -0.00910864
O        2.13275218      -1.29788780      -0.39559829      -0.04940384      -0.10564854       0.01669044
N        1.55728734       0.68996668       0.53801847       0.05806677      -0.00109122      -0.13976210
C        2.82501221       1.33670306       0.32674882       0.06625769      -0.05853939      -0.26652086
H       -3.58096123       1.48841727      -0.44024119       0.03070355       0.05944213       0.05256298
H       -2.34339690       2.40418506      -1.29248571       0.01339066      -0.05637667      -0.09700660
H       -2.79553556       0.78267336      -1.86594999      -0.06397726      -0.09656736       0.07764392
H       -1.38900709      -0.80016917      -1.20894396      -0.07723955      -0.07719000       0.15292814
H       -0.32834715      -0.77269650       1.49111676       0.06407834       0.14401452       0.09510503
H       -1.23846102      -2.87046957       0.53240800      -0.04791618       0.08133733       0.33877999
H        0.48587266      -3.05349898       0.91744930      -0.03322466       0.06621998       0.26585141
H       -0.00292823      -2.82970667      -0.75048590      -0.11369053      -0.07522875       0.27047858
H        0.77503353       1.20680821       0.91902333       0.09314654       0.05801201      -0.14791211
H        3.52207732       0.59476453      -0.05676650       0.02588223      -0.11644541      -0.22788784
H        3.21502948       1.74136543       1.26161313       0.12407301       0.02243103      -0.32572129
H        2.74027705       2.14842558      -0.39891735       0.05392512      -0.12769504      -0.34248516
22
Mode 1, Freq: -2.4592 cm⁻¹, Force Const: 2.223932e-05 eV/Å²
C       -2.63922453       1.40241468      -0.98355371      -0.00117142       0.22022395       0.12949827
C       -1.59257531       0.86014408      -0.04761668      -0.01382206       0.10826012       0.07878177
O       -1.22461414       1.48694646       0.93502694       0.04466810       0.03449745       0.10392801
N       -1.09454215      -0.35613394      -0.35776803      -0.09356678       0.09457979       0.00437994
C       -0.11074745      -1.04680049       0.45681641      -0.11836035      -0.00762671      -0.05235277
C       -0.23081213      -2.54309654       0.27696225      -0.21247336       0.00908758      -0.12857538
C        1.31747937      -0.57210827       0.14318791      -0.09619533      -0.07741215      -0.05698533
O        2.13275218      -1.29788780      -0.39559829      -0.15137692      -0.09812398      -0.11257999
N        1.55728734       0.68996668       0.53801847      -0.01143741      -0.11299548       0.00527058
C        2.82501221       1.33670306       0.32674882       0.02324732      -0.17855909       0.01262070
H       -3.58096123       1.48841727      -0.44024119       0.01491213       0.24577914       0.15335529
H       -2.34339690       2.40418506      -1.29248571       0.05106334       0.21967262       0.17777623
H       -2.79553556       0.78267336      -1.86594999      -0.05544182       0.27713424       0.09913360
H       -1.38900709      -0.80016917      -1.20894396      -0.13840349       0.15691869      -0.01262833
H       -0.32834715      -0.77269650       1.49111676      -0.08037714      -0.04887699      -0.03343009
H       -1.23846102      -2.87046957       0.53240800      -0.22685079       0.05647462      -0.12455631
H        0.48587266      -3.05349898       0.91744930      -0.22976638      -0.06788900      -0.17056400
H       -0.00292823      -2.82970667      -0.75048590      -0.25148085       0.04942981      -0.14848474
H        0.77503353       1.20680821       0.91902333       0.02762500      -0.08559050       0.04828837
H        3.52207732       0.59476453      -0.05676650      -0.02662083      -0.20290121      -0.03093035
H        3.21502948       1.74136543       1.26161313       0.06186205      -0.24226411       0.02402332
H        2.74027705       2.14842558      -0.39891735       0.05976815      -0.14197575       0.04920112
22
Mode 2, Freq: -1.5845 cm⁻¹, Force Const: 9.232135e-06 eV/Å²
C       -2.63922453       1.40241468      -0.98355371      -0.25167823      -0.11804488       0.12138563
C       -1.59257531       0.86014408      -0.04761668      -0.18598628      -0.07093590       0.07521457
O       -1.22461414       1.48694646       0.93502694      -0.16666186      -0.05183534       0.05579388
N       -1.09454215      -0.35613394      -0.35776803      -0.14987125      -0.05151541       0.05703143
C       -0.11074745      -1.04680049       0.45681641      -0.08349041      -0.00742042       0.01425281
C       -0.23081213      -2.54309654       0.27696225      -0.02974235      -0.01313650       0.02593119
C        1.31747937      -0.57210827       0.14318791      -0.11772349       0.05058393      -0.05388908
O        2.13275218      -1.29788780      -0.39559829      -0.11245620       0.08209007      -0.08836244
N        1.55728734       0.68996668       0.53801847      -0.15205558       0.06239617      -0.07078580
C        2.82501221       1.33670306       0.32674882      -0.18866725       0.11420625      -0.13182220
H       -3.58096123       1.48841727      -0.44024119      -0.23084846      -0.15745877       0.16375375
H       -2.34339690       2.40418506      -1.29248571      -0.30880499      -0.10598393       0.10584532
H       -2.79553556       0.78267336      -1.86594999      -0.26489359      -0.12674060       0.12983176
H       -1.38900709      -0.80016917      -1.20894396      -0.17064112      -0.06702464       0.07230604
H       -0.32834715      -0.77269650       1.49111676      -0.04692561      -0.01223381       0.02322210
H       -1.23846102      -2.87046957       0.53240800      -0.00440226      -0.05385733       0.07370422
H        0.48587266      -3.05349898       0.91744930       0.02091315       0.01921156      -0.00497139
H       -0.00292823      -2.82970667      -0.75048590      -0.06516996      -0.00792722       0.01662192
H        0.77503353       1.20680821       0.91902333      -0.15578581       0.03131913      -0.03630128
H        3.52207732       0.59476453      -0.05676650      -0.17800622       0.14351058      -0.16914012
H        3.21502948       1.74136543       1.26161313      -0.15793003       0.12686624      -0.15007110
H        2.74027705       2.14842558      -0.39891735      -0.25799790       0.11316552      -0.12483128
22
Mode 3, Freq: -0.7449 cm⁻¹, Force Const: 2.040404e-06 eV/Å²
C       -2.63922453       1.40241468      -0.98355371       0.00000000      -0.15539265      -0.14481166
C       -1.59257531       0.86014408      -0.04761668       0.00165646      -0.15475456      -0.14629462
O       -1.22461414       1.48694646       0.93502694       0.00191917      -0.15498634      -0.14624518
N       -1.09454215      -0.35613394      -0.35776803       0.00283149      -0.15392327      -0.14766809
C       -0.11074745      -1.04680049       0.45681641       0.00454778      -0.15327227      -0.14918908
C       -0.23081213      -2.54309654       0.27696225       0.00620352      -0.15329637      -0.15009224
C        1.31747937      -0.57210827       0.14318791       0.00362975      -0.15129267      -0.15037550
O        2.13275218      -1.29788780      -0.39559829       0.00396115      -0.14992175      -0.15172084
N        1.55728734       0.68996668       0.53801847       0.00247911      -0.15125757      -0.14978859
C        2.82501221       1.33670306       0.32674882       0.00146216      -0.14954904      -0.15065916
H       -3.58096123       1.48841727      -0.44024119       0.00046174      -0.15695331      -0.14376414
H       -2.34339690       2.40418506      -1.29248571      -0.00157214      -0.15480417      -0.14440846
H       -2.79553556       0.78267336      -1.86594999      -0.00015203      -0.15495990      -0.14508869
H       -1.38900709      -0.80016917      -1.20894396       0.00248669      -0.15369108      -0.14766997
H       -0.32834715      -0.77269650       1.49111676       0.00530705      -0.15425372      -0.14876927
H       -1.23846102      -2.87046957       0.53240800       0.00687694      -0.15471496      -0.14925434
H        0.48587266      -3.05349898       0.91744930       0.00750855      -0.15285282      -0.15119894
H       -0.00292823      -2.82970667      -0.75048590       0.00547331      -0.15230912      -0.15052955
H        0.77503353       1.20680821       0.91902333       0.00224795      -0.15249354      -0.14858702
H        3.52207732       0.59476453      -0.05676650       0.00187164      -0.14834450      -0.15224533
H        3.21502948       1.74136543       1.26161313       0.00212522      -0.15002722      -0.15072632
H        2.74027705       2.14842558      -0.39891735      -0.00038420      -0.14892106      -0.14973837
22
Mode 4, Freq: -0.2444 cm⁻¹, Force Const: 2.195768e-07 eV/Å²
C       -2.63922453       1.40241468      -0.98355371       0.00000000      -0.14854747       0.14896271
C       -1.59257531       0.86014408      -0.04761668      -0.00115502      -0.14826255       0.15041935
O       -1.22461414       1.48694646       0.93502694      -0.00193400      -0.14769669       0.15035014
N       -1.09454215      -0.35613394      -0.35776803      -0.00127418      -0.14866149       0.15179197
C       -0.11074745      -1.04680049       0.45681641      -0.00235168      -0.14843351       0.15328629
C       -0.23081213      -2.54309654       0.27696225      -0.00269974      -0.14851798       0.15422450
C        1.31747937      -0.57210827       0.14318791      -0.00186236      -0.14916305       0.15440919
O        2.13275218      -1.29788780      -0.39559829      -0.00157127      -0.14983208       0.15575081
N        1.55728734       0.68996668       0.53801847      -0.00181563      -0.14897119       0.15376759
C        2.82501221       1.33670306       0.32674882      -0.00136929      -0.14957134       0.15460935
H       -3.58096123       1.48841727      -0.44024119      -0.00049948      -0.14772521       0.14796576
H       -2.34339690       2.40418506      -1.29248571       0.00073020      -0.14891267       0.14847624
H       -2.79553556       0.78267336      -1.86594999       0.00061075      -0.14916551       0.14928880
H       -1.38900709      -0.80016917      -1.20894396      -0.00056396      -0.14916104       0.15180694
H       -0.32834715      -0.77269650       1.49111676      -0.00331039      -0.14762297       0.15286964
H       -1.23846102      -2.87046957       0.53240800      -0.00307565      -0.14798003       0.15343066
H        0.48587266      -3.05349898       0.91744930      -0.00353221      -0.14831857       0.15531512
H       -0.00292823      -2.82970667      -0.75048590      -0.00175594      -0.14932652       0.15465946
H        0.77503353       1.20680821       0.91902333      -0.00202098      -0.14842516       0.15260556
H        3.52207732       0.59476453      -0.05676650      -0.00125780      -0.15007724       0.15579040
H        3.21502948       1.74136543       1.26161313      -0.00215218      -0.14910084       0.15473245
H        2.74027705       2.14842558      -0.39891735      -0.00035170      -0.15001582       0.15399377
22
Mode 5, Freq: 1.1209 cm⁻¹, Force Const: 4.620103e-06 eV/Å²
C       -2.63922453       1.40241468      -0.98355371       0.00000000       0.00926384      -0.26633441
C       -1.59257531       0.86014408      -0.04761668      -0.07850190       0.03104881      -0.16592583
O       -1.22461414       1.48694646       0.93502694      -0.13364191       0.07067090      -0.17054871
N       -1.09454215      -0.35613394      -0.35776803      -0.08413414       0.00466640      -0.07148347
C       -0.11074745      -1.04680049       0.45681641      -0.15728894       0.02206028       0.03162416
C       -0.23081213      -2.54309654       0.27696225      -0.17834371       0.01603344       0.09580491
C        1.31747937      -0.57210827       0.14318791      -0.12439141      -0.02544322       0.10955752
O        2.13275218      -1.29788780      -0.39559829      -0.10272146      -0.06999762       0.20236719
N        1.55728734       0.68996668       0.53801847      -0.12366317      -0.01180410       0.06550568
C        2.82501221       1.33670306       0.32674882      -0.09416681      -0.05071961       0.12333321
H       -3.58096123       1.48841727      -0.44024119      -0.03514066       0.06205583      -0.33565021
H       -2.34339690       2.40418506      -1.29248571       0.04723371      -0.01449491      -0.29824570
H       -2.79553556       0.78267336      -1.86594999       0.04478616      -0.03263008      -0.24483484
H       -1.38900709      -0.80016917      -1.20894396      -0.03420050      -0.03021759      -0.07055843
H       -0.32834715      -0.77269650       1.49111676      -0.22421147       0.07720575       0.00293177
H       -1.23846102      -2.87046957       0.53240800      -0.20372798       0.05113708       0.04065685
H        0.48587266      -3.05349898       0.91744930      -0.23498608       0.03096982       0.17108311
H       -0.00292823      -2.82970667      -0.75048590      -0.11238438      -0.03897684       0.12578151
H        0.77503353       1.20680821       0.91902333      -0.13899978       0.02454477      -0.01526403
H        3.52207732       0.59476453      -0.05676650      -0.08189110      -0.08665762       0.21517788
H        3.21502948       1.74136543       1.26161313      -0.15449469      -0.00809214       0.13000405
H        2.74027705       2.14842558      -0.39891735      -0.02297307      -0.08850490       0.07270557
22
Mode 6, Freq: 41.0759 cm⁻¹, Force Const: 6.204601e-03 eV/Å²
C       -2.63922453       1.40241468      -0.98355371      -0.00112056      -0.00043698      -0.00357996
C       -1.59257531       0.86014408      -0.04761668      -0.00242883       0.00056820      -0.00157355
O       -1.22461414       1.48694646       0.93502694      -0.00746409      -0.00070887       0.00106611
N       -1.09454215      -0.35613394      -0.35776803       0.00279363       0.00297325      -0.00287452
C       -0.11074745      -1.04680049       0.45681641       0.00062534       0.00309878      -0.00051955
C       -0.23081213      -2.54309654       0.27696225      -0.00451930       0.00268418       0.00726917
C        1.31747937      -0.57210827       0.14318791       0.00370682      -0.00285217       0.00132295
O        2.13275218      -1.29788780      -0.39559829       0.01075958      -0.01820373       0.03254683
N        1.55728734       0.68996668       0.53801847      -0.00772830       0.01280897      -0.04161646
C        2.82501221       1.33670306       0.32674882       0.00480400       0.00213894       0.00395322
H       -3.58096123       1.48841727      -0.44024119      -0.00323387      -0.00493311      -0.00649846
H       -2.34339690       2.40418506      -1.29248571      -0.00336103       0.00133948      -0.00000987
H       -2.79553556       0.78267336      -1.86594999       0.00374928       0.00137122      -0.00572585
H       -1.38900709      -0.80016917      -1.20894396       0.00859762       0.00500242      -0.00592770
H       -0.32834715      -0.77269650       1.49111676       0.00097386       0.00828082      -0.00174384
H       -1.23846102      -2.87046957       0.53240800      -0.00525227       0.00775761       0.01079776
H        0.48587266      -3.05349898       0.91744930      -0.00488162       0.00340748       0.00815794
H       -0.00292823      -2.82970667      -0.75048590      -0.00815555      -0.00369853       0.00818459
H        0.77503353       1.20680821       0.91902333      -0.00286008       0.00563622      -0.02251817
H        3.52207732       0.59476453      -0.05676650      -0.15722002       0.12423734      -0.52717322
H        3.21502948       1.74136543       1.26161313       0.27827880      -0.49912018       0.11046417
H        2.74027705       2.14842558      -0.39891735      -0.10813411       0.37109101       0.43439648
22
Mode 7, Freq: 53.8025 cm⁻¹, Force Const: 1.064499e-02 eV/Å²
C       -2.63922453       1.40241468      -0.98355371       0.06687527       0.00766160      -0.05696123
C       -1.59257531       0.86014408      -0.04761668       0.00836570      -0.01739612      -0.00640887
O       -1.22461414       1.48694646       0.93502694       0.00738262      -0.00288574      -0.01534534
N       -1.09454215      -0.35613394      -0.35776803      -0.02271671      -0.04015446       0.03272573
C       -0.11074745      -1.04680049       0.45681641      -0.00078155      -0.00914815       0.03259784
C       -0.23081213      -2.54309654       0.27696225       0.02508905      -0.01527198       0.06681850
C        1.31747937      -0.57210827       0.14318791      -0.02086592       0.01504631      -0.01915890
O        2.13275218      -1.29788780      -0.39559829      -0.06299163       0.07080912      -0.15820059
N        1.55728734       0.68996668       0.53801847       0.00866850      -0.02585478       0.09530000
C        2.82501221       1.33670306       0.32674882      -0.01657855       0.00595798       0.04173383
H       -3.58096123       1.48841727      -0.44024119       0.17414907       0.52692163       0.04181443
H       -2.34339690       2.40418506      -1.29248571       0.37006167      -0.20035575      -0.45068249
H       -2.79553556       0.78267336      -1.86594999      -0.25588554      -0.23976693       0.17463307
H       -1.38900709      -0.80016917      -1.20894396      -0.01172209      -0.04832029       0.03310280
H       -0.32834715      -0.77269650       1.49111676       0.01256038       0.00986789       0.02964886
H       -1.23846102      -2.87046957       0.53240800       0.03355891      -0.02977092       0.08136149
H        0.48587266      -3.05349898       0.91744930       0.03807399       0.01347165       0.07583697
H       -0.00292823      -2.82970667      -0.75048590       0.02607010      -0.03300615       0.07232650
H        0.77503353       1.20680821       0.91902333       0.01720840      -0.04604631       0.13983250
H        3.52207732       0.59476453      -0.05676650      -0.03969368       0.04456558      -0.07505276
H        3.21502948       1.74136543       1.26161313       0.05600210      -0.06322512       0.04137069
H        2.74027705       2.14842558      -0.39891735      -0.08553936       0.06206620       0.11242525
22
Mode 8, Freq: 59.5354 cm⁻¹, Force Const: 1.303437e-02 eV/Å²
C       -2.63922453       1.40241468      -0.98355371       0.02087581       0.04167477       0.02343337
C       -1.59257531       0.86014408      -0.04761668      -0.00869465      -0.00302583       0.02981080
O       -1.22461414       1.48694646       0.93502694      -0.02015408      -0.03026652       0.05209225
N       -1.09454215      -0.35613394      -0.35776803       0.00768199       0.01449245      -0.00937869
C       -0.11074745      -1.04680049       0.45681641       0.00078089      -0.01636550      -0.02581369
C       -0.23081213      -2.54309654       0.27696225      -0.00335507      -0.00911066      -0.08339307
C        1.31747937      -0.57210827       0.14318791       0.01040410      -0.01305115       0.01838420
O        2.13275218      -1.29788780      -0.39559829       0.06112461      -0.04995059       0.14488433
N        1.55728734       0.68996668       0.53801847      -0.04013079       0.03056247      -0.09239875
C        2.82501221       1.33670306       0.32674882      -0.03416652       0.02967094      -0.05882196
H       -3.58096123       1.48841727      -0.44024119       0.15003239       0.56379324       0.15914273
H       -2.34339690       2.40418506      -1.29248571       0.32170317      -0.16460572      -0.36876199
H       -2.79553556       0.78267336      -1.86594999      -0.34001771      -0.19217484       0.25225231
H       -1.38900709      -0.80016917      -1.20894396       0.01178581       0.04123273      -0.02469348
H       -0.32834715      -0.77269650       1.49111676      -0.00798745      -0.05383779      -0.01717517
H       -1.23846102      -2.87046957       0.53240800      -0.00458209      -0.01482646      -0.09562094
H        0.48587266      -3.05349898       0.91744930      -0.00331638      -0.03691798      -0.10627568
H       -0.00292823      -2.82970667      -0.75048590      -0.00760645       0.02895946      -0.09523175
H        0.77503353       1.20680821       0.91902333      -0.05321127       0.03162998      -0.11968882
H        3.52207732       0.59476453      -0.05676650      -0.00378571       0.01303293       0.02864837
H        3.21502948       1.74136543       1.26161313      -0.09247780       0.09258307      -0.06165144
H        2.74027705       2.14842558      -0.39891735      -0.00206446      -0.01634518      -0.11388562
22
Mode 9, Freq: 73.5930 cm⁻¹, Force Const: 1.991649e-02 eV/Å²
C       -2.63922453       1.40241468      -0.98355371       0.22012095       0.12179906      -0.10584712
C       -1.59257531       0.86014408      -0.04761668       0.02524127      -0.01435301       0.03281001
O       -1.22461414       1.48694646       0.93502694      -0.09925289      -0.11211862       0.14141198
N       -1.09454215      -0.35613394      -0.35776803       0.00704422      -0.02148340       0.02608876
C       -0.11074745      -1.04680049       0.45681641      -0.00528228      -0.02531747       0.03696614
C       -0.23081213      -2.54309654       0.27696225       0.00278049      -0.02708153       0.05367617
C        1.31747937      -0.57210827       0.14318791      -0.01881547      -0.00888776       0.00938413
O        2.13275218      -1.29788780      -0.39559829      -0.02141613       0.00815815      -0.01706515
N        1.55728734       0.68996668       0.53801847      -0.03776607       0.00642582      -0.02169261
C        2.82501221       1.33670306       0.32674882      -0.08239651       0.05681725      -0.13468175
H       -3.58096123       1.48841727      -0.44024119       0.07550266      -0.05804099      -0.32609326
H       -2.34339690       2.40418506      -1.29248571       0.23687595       0.20692529       0.18976308
H       -2.79553556       0.78267336      -1.86594999       0.47933167       0.30250576      -0.27885377
H       -1.38900709      -0.80016917      -1.20894396       0.16555108       0.07757600      -0.08113505
H       -0.32834715      -0.77269650       1.49111676      -0.01330076      -0.00736953       0.02928881
H       -1.23846102      -2.87046957       0.53240800       0.00247210      -0.02829467       0.04884623
H        0.48587266      -3.05349898       0.91744930      -0.00007016      -0.01478752       0.06718347
H       -0.00292823      -2.82970667      -0.75048590       0.01308974      -0.03941458       0.05963003
H        0.77503353       1.20680821       0.91902333      -0.02435415      -0.01763256       0.03515080
H        3.52207732       0.59476453      -0.05676650      -0.07651111       0.07547757      -0.15996388
H        3.21502948       1.74136543       1.26161313      -0.03300978       0.10802452      -0.17778631
H        2.74027705       2.14842558      -0.39891735      -0.17310539       0.02712621      -0.15768796
22
Mode 10, Freq: 103.7115 cm⁻¹, Force Const: 3.955428e-02 eV/Å²
C       -2.63922453       1.40241468      -0.98355371       0.07006858       0.01884831       0.03095503
C       -1.59257531       0.86014408      -0.04761668       0.10875566       0.02557063      -0.01190147
O       -1.22461414       1.48694646       0.93502694       0.26169699       0.11723032      -0.12436684
N       -1.09454215      -0.35613394      -0.35776803      -0.06013189      -0.06623593       0.09480767
C       -0.11074745      -1.04680049       0.45681641      -0.02718075      -0.10068510       0.03688379
C       -0.23081213      -2.54309654       0.27696225       0.01753509      -0.08512261      -0.13766579
C        1.31747937      -0.57210827       0.14318791      -0.03981013      -0.02852339       0.06433799
O        2.13275218      -1.29788780      -0.39559829      -0.00718116       0.01707808       0.05064174
N        1.55728734       0.68996668       0.53801847      -0.10366341      -0.03104854       0.09569699
C        2.82501221       1.33670306       0.32674882      -0.20827650       0.11558672      -0.06744590
H       -3.58096123       1.48841727      -0.44024119       0.05230436      -0.12548271       0.02633952
H       -2.34339690       2.40418506      -1.29248571      -0.01931926       0.07517176       0.13491558
H       -2.79553556       0.78267336      -1.86594999       0.13339385       0.08555818      -0.02723100
H       -1.38900709      -0.80016917      -1.20894396      -0.19455470      -0.12080201       0.16985175
H       -0.32834715      -0.77269650       1.49111676      -0.02244137      -0.22170956       0.07137226
H       -1.23846102      -2.87046957       0.53240800       0.03195104      -0.15106724      -0.16353871
H        0.48587266      -3.05349898       0.91744930       0.04321790      -0.13866362      -0.20998001
H       -0.00292823      -2.82970667      -0.75048590       0.01713498       0.04898204      -0.17521513
H        0.77503353       1.20680821       0.91902333      -0.15654920      -0.06520917       0.04450237
H        3.52207732       0.59476453      -0.05676650      -0.17317069       0.21375795      -0.19417655
H        3.21502948       1.74136543       1.26161313      -0.11861697       0.13799950      -0.11449893
H        2.74027705       2.14842558      -0.39891735      -0.41699103       0.12881915      -0.02874226
22
Mode 11, Freq: 149.9423 cm⁻¹, Force Const: 8.267763e-02 eV/Å²
C       -2.63922453       1.40241468      -0.98355371      -0.07349391      -0.05325397       0.01155608
C       -1.59257531       0.86014408      -0.04761668      -0.00539695       0.01347999      -0.02241205
O       -1.22461414       1.48694646       0.93502694      -0.06938693      -0.00807842       0.01410509
N       -1.09454215      -0.35613394      -0.35776803       0.12207133       0.08411994      -0.09439410
C       -0.11074745      -1.04680049       0.45681641       0.00439428       0.02434611       0.00176689
C       -0.23081213      -2.54309654       0.27696225      -0.07337912       0.03666342      -0.04958855
C        1.31747937      -0.57210827       0.14318791       0.04186980      -0.03430651       0.10635451
O        2.13275218      -1.29788780      -0.39559829       0.00162388      -0.01129724       0.01588968
N        1.55728734       0.68996668       0.53801847       0.10607678      -0.08449888       0.24249773
C        2.82501221       1.33670306       0.32674882      -0.01934892       0.02921375      -0.18236047
H       -3.58096123       1.48841727      -0.44024119      -0.02992746      -0.02071427       0.08025519
H       -2.34339690       2.40418506      -1.29248571      -0.10735504      -0.07181725      -0.08417192
H       -2.79553556       0.78267336      -1.86594999      -0.13622622      -0.11547265       0.06636624
H       -1.38900709      -0.80016917      -1.20894396       0.11468150       0.06561100      -0.08172379
H       -0.32834715      -0.77269650       1.49111676      -0.08786245       0.02305888      -0.01802199
H       -1.23846102      -2.87046957       0.53240800      -0.15007807       0.11468589      -0.25046539
H        0.48587266      -3.05349898       0.91744930      -0.24299301      -0.03914741       0.08047525
H       -0.00292823      -2.82970667      -0.75048590       0.10314354       0.04537297      -0.01235183
H        0.77503353       1.20680821       0.91902333       0.10131700      -0.05844077       0.19677082
H        3.52207732       0.59476453      -0.05676650      -0.07456922       0.07886086      -0.37861419
H        3.21502948       1.74136543       1.26161313       0.24345219       0.11390715      -0.33033526
H        2.74027705       2.14842558      -0.39891735      -0.33442035      -0.01554887      -0.19752388
22
Mode 12, Freq: 177.1035 cm⁻¹, Force Const: 1.153437e-01 eV/Å²
C       -2.63922453       1.40241468      -0.98355371      -0.02373756       0.06924544       0.10838259
C       -1.59257531       0.86014408      -0.04761668       0.06044843      -0.02407669      -0.05208119
O       -1.22461414       1.48694646       0.93502694       0.11922631      -0.11302195      -0.01362574
N       -1.09454215      -0.35613394      -0.35776803       0.08053164       0.01609847      -0.16837731
C       -0.11074745      -1.04680049       0.45681641       0.00075570       0.01193951      -0.07108384
C       -0.23081213      -2.54309654       0.27696225      -0.09473756      -0.00301553       0.18184048
C        1.31747937      -0.57210827       0.14318791       0.01594000      -0.03334286      -0.04960201
O        2.13275218      -1.29788780      -0.39559829       0.04007326      -0.02198593      -0.02786576
N        1.55728734       0.68996668       0.53801847      -0.05865663      -0.02561953      -0.03068130
C        2.82501221       1.33670306       0.32674882      -0.11596314       0.10435211       0.06855491
H       -3.58096123       1.48841727      -0.44024119       0.05237167       0.06682809       0.24023722
H       -2.34339690       2.40418506      -1.29248571      -0.02734808       0.08124466       0.14307578
H       -2.79553556       0.78267336      -1.86594999      -0.16034864       0.13537407       0.08639161
H       -1.38900709      -0.80016917      -1.20894396       0.06724018       0.02149964      -0.16638044
H       -0.32834715      -0.77269650       1.49111676      -0.03061021       0.17006783      -0.12112223
H       -1.23846102      -2.87046957       0.53240800      -0.15991525       0.13276207       0.10063779
H        0.48587266      -3.05349898       0.91744930      -0.24068274       0.06569709       0.40241456
H       -0.00292823      -2.82970667      -0.75048590       0.03628513      -0.23193440       0.27540019
H        0.77503353       1.20680821       0.91902333      -0.11348842      -0.09679163      -0.04261536
H        3.52207732       0.59476453      -0.05676650      -0.00042000       0.19686089       0.09814194
H        3.21502948       1.74136543       1.26161313      -0.22601476       0.12616728       0.10557563
H        2.74027705       2.14842558      -0.39891735      -0.15505604       0.11682045       0.08645754
22
Mode 13, Freq: 212.8348 cm⁻¹, Force Const: 1.665809e-01 eV/Å²
C       -2.63922453       1.40241468      -0.98355371      -0.00659513       0.04688255       0.02574343
C       -1.59257531       0.86014408      -0.04761668      -0.00786300      -0.02230677      -0.01663486
O       -1.22461414       1.48694646       0.93502694       0.03965382      -0.04886908      -0.01642341
N       -1.09454215      -0.35613394      -0.35776803      -0.05265732      -0.03950056      -0.02067069
C       -0.11074745      -1.04680049       0.45681641      -0.03659329       0.00727622       0.00380791
C       -0.23081213      -2.54309654       0.27696225       0.09335331      -0.00269920      -0.00849430
C        1.31747937      -0.57210827       0.14318791      -0.04519905       0.04565430       0.02795280
O        2.13275218      -1.29788780      -0.39559829      -0.05080907       0.03352652       0.03439505
N        1.55728734       0.68996668       0.53801847      -0.00320194       0.04429438       0.00078456
C        2.82501221       1.33670306       0.32674882       0.04609241      -0.05678268      -0.03113644
H       -3.58096123       1.48841727      -0.44024119       0.00738337       0.05226192       0.04932674
H       -2.34339690       2.40418506      -1.29248571       0.02079622       0.05209258       0.06967315
H       -2.79553556       0.78267336      -1.86594999      -0.04378372       0.09248248       0.00022001
H       -1.38900709      -0.80016917      -1.20894396      -0.04601012      -0.04447411      -0.02065653
H       -0.32834715      -0.77269650       1.49111676      -0.08801302      -0.00649745      -0.00411050
H       -1.23846102      -2.87046957       0.53240800      -0.02390918      -0.02454226      -0.49630722
H        0.48587266      -3.05349898       0.91744930      -0.22055623       0.04380287       0.38136289
H       -0.00292823      -2.82970667      -0.75048590       0.63662642      -0.02434835       0.12106876
H        0.77503353       1.20680821       0.91902333       0.02310254       0.08452303      -0.00135229
H        3.52207732       0.59476453      -0.05676650      -0.02794615      -0.12424084      -0.03463005
H        3.21502948       1.74136543       1.26161313       0.10088766      -0.07696842      -0.04530429
H        2.74027705       2.14842558      -0.39891735       0.09995551      -0.06194642      -0.04294427
22
Mode 14, Freq: 226.1424 cm⁻¹, Force Const: 1.880632e-01 eV/Å²
C       -2.63922453       1.40241468      -0.98355371      -0.02835251       0.08665672       0.03376361
C       -1.59257531       0.86014408      -0.04761668      -0.01797608      -0.03237255      -0.05138241
O       -1.22461414       1.48694646       0.93502694       0.04292755      -0.09612419      -0.03299356
N       -1.09454215      -0.35613394      -0.35776803      -0.05458968      -0.03874928      -0.08444235
C       -0.11074745      -1.04680049       0.45681641      -0.04152257       0.02403360      -0.03995301
C       -0.23081213      -2.54309654       0.27696225       0.07411302       0.00777189       0.02966147
C        1.31747937      -0.57210827       0.14318791      -0.03253984       0.04429151       0.03765888
O        2.13275218      -1.29788780      -0.39559829      -0.02639302       0.02952516       0.06666162
N        1.55728734       0.68996668       0.53801847       0.02525005       0.01928091       0.08345191
C        2.82501221       1.33670306       0.32674882       0.03723766      -0.03959933      -0.04897694
H       -3.58096123       1.48841727      -0.44024119       0.00461228       0.09724903       0.08923741
H       -2.34339690       2.40418506      -1.29248571       0.01503368       0.09613270       0.10632244
H       -2.79553556       0.78267336      -1.86594999      -0.10626891       0.16815056      -0.00975396
H       -1.38900709      -0.80016917      -1.20894396      -0.05586745      -0.05157753      -0.07751300
H       -0.32834715      -0.77269650       1.49111676      -0.09471928       0.04475892      -0.05746911
H       -1.23846102      -2.87046957       0.53240800       0.24073386      -0.14523046       0.48703933
H        0.48587266      -3.05349898       0.91744930       0.45289394       0.12907448      -0.29869694
H       -0.00292823      -2.82970667      -0.75048590      -0.35525805       0.01780479      -0.07025650
H        0.77503353       1.20680821       0.91902333       0.03603626       0.06641838       0.04020621
H        3.52207732       0.59476453      -0.05676650      -0.03895045      -0.08781972      -0.09366055
H        3.21502948       1.74136543       1.26161313       0.14653914      -0.02920558      -0.09971619
H        2.74027705       2.14842558      -0.39891735       0.00821353      -0.05982586      -0.06890557
22
Mode 15, Freq: 298.5879 cm⁻¹, Force Const: 3.278569e-01 eV/Å²
C       -2.63922453       1.40241468      -0.98355371       0.07580536      -0.15724824       0.00276731
C       -1.59257531       0.86014408      -0.04761668       0.10134652      -0.06641408       0.00076970
O       -1.22461414       1.48694646       0.93502694       0.11820590      -0.12114824       0.03364349
N       -1.09454215      -0.35613394      -0.35776803       0.10758410      -0.01655712      -0.03309593
C       -0.11074745      -1.04680049       0.45681641      -0.02066117       0.00434302       0.07689083
C       -0.23081213      -2.54309654       0.27696225      -0.21386449       0.03750689      -0.05769799
C        1.31747937      -0.57210827       0.14318791      -0.06973331       0.10375889       0.07423995
O        2.13275218      -1.29788780      -0.39559829      -0.07286522       0.15732861       0.00389840
N        1.55728734       0.68996668       0.53801847      -0.06262673       0.14764021      -0.04875669
C        2.82501221       1.33670306       0.32674882       0.05475287      -0.06279877      -0.02381034
H       -3.58096123       1.48841727      -0.44024119       0.07763258      -0.17822249       0.00898947
H       -2.34339690       2.40418506      -1.29248571       0.00729112      -0.16414849      -0.08478408
H       -2.79553556       0.78267336      -1.86594999       0.10043296      -0.23476607       0.05361313
H       -1.38900709      -0.80016917      -1.20894396       0.08868694      -0.06634430       0.00201713
H       -0.32834715      -0.77269650       1.49111676      -0.10795614      -0.01251372       0.06224592
H       -1.23846102      -2.87046957       0.53240800      -0.25688484       0.20149009      -0.01182658
H        0.48587266      -3.05349898       0.91744930      -0.25510174      -0.18944536      -0.19608472
H       -0.00292823      -2.82970667      -0.75048590      -0.38806975       0.13233876      -0.12458082
H        0.77503353       1.20680821       0.91902333      -0.00185013       0.18796931       0.01759928
H        3.52207732       0.59476453      -0.05676650      -0.08261931      -0.20918396       0.01143781
H        3.21502948       1.74136543       1.26161313       0.11047538      -0.11832911      -0.02241750
H        2.74027705       2.14842558      -0.39891735       0.22578804      -0.06624539      -0.04640120
22
Mode 16, Freq: 320.2402 cm⁻¹, Force Const: 3.771305e-01 eV/Å²
C       -2.63922453       1.40241468      -0.98355371       0.00408555      -0.05911157       0.02634747
C       -1.59257531       0.86014408      -0.04761668       0.09738195       0.07871379      -0.00478997
O       -1.22461414       1.48694646       0.93502694      -0.01760870       0.07385156       0.04401987
N       -1.09454215      -0.35613394      -0.35776803       0.20515648       0.13653721      -0.08756077
C       -0.11074745      -1.04680049       0.45681641      -0.01401730      -0.00924813       0.04296004
C       -0.23081213      -2.54309654       0.27696225       0.19623046      -0.02159971       0.01751194
C        1.31747937      -0.57210827       0.14318791      -0.08946330      -0.02852696       0.04816579
O        2.13275218      -1.29788780      -0.39559829      -0.14909713      -0.04082993      -0.02613302
N        1.55728734       0.68996668       0.53801847      -0.13770854      -0.00591037      -0.05380276
C        2.82501221       1.33670306       0.32674882      -0.10104403      -0.10479393       0.00411715
H       -3.58096123       1.48841727      -0.44024119       0.04414846      -0.11452344       0.10448823
H       -2.34339690       2.40418506      -1.29248571      -0.12902175      -0.05389512      -0.08455110
H       -2.79553556       0.78267336      -1.86594999      -0.01608644      -0.14983046       0.09424546
H       -1.38900709      -0.80016917      -1.20894396       0.31340331       0.22782174      -0.17157976
H       -0.32834715      -0.77269650       1.49111676      -0.13258041      -0.02524583       0.02098067
H       -1.23846102      -2.87046957       0.53240800       0.30345476      -0.27359995       0.11011928
H        0.48587266      -3.05349898       0.91744930       0.38757914       0.15325095      -0.05485166
H       -0.00292823      -2.82970667      -0.75048590       0.19784153       0.04144195       0.00188142
H        0.77503353       1.20680821       0.91902333      -0.11663171      -0.01710433       0.00779023
H        3.52207732       0.59476453      -0.05676650      -0.14849997      -0.16552444       0.03441534
H        3.21502948       1.74136543       1.26161313      -0.10141859      -0.13827571       0.01923780
H        2.74027705       2.14842558      -0.39891735      -0.00371300      -0.10122386      -0.00212842
22
Mode 17, Freq: 353.1649 cm⁻¹, Force Const: 4.586644e-01 eV/Å²
C       -2.63922453       1.40241468      -0.98355371      -0.01744969       0.05265656       0.01949175
C       -1.59257531       0.86014408      -0.04761668      -0.00696420       0.04157063       0.01108294
O       -1.22461414       1.48694646       0.93502694      -0.06140081       0.10674836      -0.01193857
N       -1.09454215      -0.35613394      -0.35776803       0.00660779       0.01899410       0.00701787
C       -0.11074745      -1.04680049       0.45681641       0.03234204      -0.09225426      -0.07423063
C       -0.23081213      -2.54309654       0.27696225      -0.04057865      -0.11698410       0.07570110
C        1.31747937      -0.57210827       0.14318791       0.01767737      -0.00678554      -0.03047216
O        2.13275218      -1.29788780      -0.39559829       0.27116221       0.24232295       0.00441181
N        1.55728734       0.68996668       0.53801847      -0.14459705      -0.01893708       0.04957025
C        2.82501221       1.33670306       0.32674882      -0.06802721      -0.24702583      -0.06502520
H       -3.58096123       1.48841727      -0.44024119      -0.00581358       0.05034556       0.04052416
H       -2.34339690       2.40418506      -1.29248571      -0.01248897       0.05959219       0.04650067
H       -2.79553556       0.78267336      -1.86594999      -0.04074035       0.07854930       0.00525833
H       -1.38900709      -0.80016917      -1.20894396       0.01024493       0.09642763      -0.03572775
H       -0.32834715      -0.77269650       1.49111676       0.10291991      -0.06914625      -0.06384449
H       -1.23846102      -2.87046957       0.53240800      -0.05853093      -0.02740006       0.12171336
H        0.48587266      -3.05349898       0.91744930      -0.08568037      -0.05823472       0.17728184
H       -0.00292823      -2.82970667      -0.75048590      -0.05623519      -0.29894277       0.12283488
H        0.77503353       1.20680821       0.91902333      -0.14332341       0.01775218       0.00132617
H        3.52207732       0.59476453      -0.05676650      -0.28495499      -0.43647677      -0.08810382
H        3.21502948       1.74136543       1.26161313       0.10887831      -0.28056675      -0.12486860
H        2.74027705       2.14842558      -0.39891735       0.04291424      -0.27837518      -0.11369686
22
Mode 18, Freq: 429.9140 cm⁻¹, Force Const: 6.796778e-01 eV/Å²
C       -2.63922453       1.40241468      -0.98355371      -0.04975699       0.15003343       0.06988349
C       -1.59257531       0.86014408      -0.04761668       0.00181896      -0.05896159      -0.10688949
O       -1.22461414       1.48694646       0.93502694      -0.12760611       0.03073025      -0.12409611
N       -1.09454215      -0.35613394      -0.35776803       0.12461574      -0.06231902       0.02590115
C       -0.11074745      -1.04680049       0.45681641       0.04970636      -0.09187913       0.18390363
C       -0.23081213      -2.54309654       0.27696225      -0.03235808      -0.08979907      -0.01709723
C        1.31747937      -0.57210827       0.14318791       0.03604159      -0.02810543       0.10842842
O        2.13275218      -1.29788780      -0.39559829      -0.03093109       0.02116663      -0.05573739
N        1.55728734       0.68996668       0.53801847       0.01436254       0.04285932      -0.06999189
C        2.82501221       1.33670306       0.32674882       0.04383688       0.03755607       0.00728352
H       -3.58096123       1.48841727      -0.44024119       0.08306523       0.18247436       0.29622793
H       -2.34339690       2.40418506      -1.29248571       0.04497897       0.19362687       0.30136326
H       -2.79553556       0.78267336      -1.86594999      -0.32417503       0.39567769      -0.05553276
H       -1.38900709      -0.80016917      -1.20894396       0.26365680      -0.12303719       0.00699594
H       -0.32834715      -0.77269650       1.49111676      -0.04435024      -0.13016832       0.17336176
H       -1.23846102      -2.87046957       0.53240800      -0.05983088      -0.04378739      -0.06609742
H        0.48587266      -3.05349898       0.91744930      -0.06380174      -0.28671625      -0.13983263
H       -0.00292823      -2.82970667      -0.75048590      -0.09040324       0.09765491      -0.08354810
H        0.77503353       1.20680821       0.91902333       0.04252392       0.02324169       0.01248241
H        3.52207732       0.59476453      -0.05676650       0.06135665       0.03828216       0.03793054
H        3.21502948       1.74136543       1.26161313      -0.00812983       0.01564046       0.03979817
H        2.74027705       2.14842558      -0.39891735       0.09291294       0.05084568       0.01841419
22
Mode 19, Freq: 469.3200 cm⁻¹, Force Const: 8.099868e-01 eV/Å²
C       -2.63922453       1.40241468      -0.98355371       0.00326917       0.02121058      -0.00674740
C       -1.59257531       0.86014408      -0.04761668      -0.05111045      -0.04982076       0.01495139
O       -1.22461414       1.48694646       0.93502694      -0.00225348      -0.02985941      -0.01491404
N       -1.09454215      -0.35613394      -0.35776803       0.08582548       0.03551174      -0.02710969
C       -0.11074745      -1.04680049       0.45681641       0.03371275       0.05453521       0.05225074
C       -0.23081213      -2.54309654       0.27696225       0.02525405       0.09616131      -0.00839755
C        1.31747937      -0.57210827       0.14318791       0.01363074      -0.01947277      -0.00426258
O        2.13275218      -1.29788780      -0.39559829       0.02069116      -0.00891194      -0.01491192
N        1.55728734       0.68996668       0.53801847      -0.04279370      -0.02735896      -0.00462217
C        2.82501221       1.33670306       0.32674882      -0.05348127      -0.05192031       0.00264290
H       -3.58096123       1.48841727      -0.44024119      -0.03544205       0.09004636      -0.08752219
H       -2.34339690       2.40418506      -1.29248571       0.13071471       0.01002525       0.07381488
H       -2.79553556       0.78267336      -1.86594999       0.04492115       0.09555915      -0.06710735
H       -1.38900709      -0.80016917      -1.20894396      -0.62256038      -0.44933021       0.47424808
H       -0.32834715      -0.77269650       1.49111676       0.06703974       0.07395852       0.05510967
H       -1.23846102      -2.87046957       0.53240800       0.02213967       0.07762820      -0.04032648
H        0.48587266      -3.05349898       0.91744930       0.01946016       0.04080497      -0.04813194
H       -0.00292823      -2.82970667      -0.75048590       0.03767869       0.18477833      -0.03127586
H        0.77503353       1.20680821       0.91902333      -0.06329180      -0.04404549      -0.02199726
H        3.52207732       0.59476453      -0.05676650      -0.07080691      -0.06911672       0.00423048
H        3.21502948       1.74136543       1.26161313      -0.04382044      -0.05988347       0.00225699
H        2.74027705       2.14842558      -0.39891735      -0.03435163      -0.05237712       0.00003489
22
Mode 20, Freq: 492.6370 cm⁻¹, Force Const: 8.924707e-01 eV/Å²
C       -2.63922453       1.40241468      -0.98355371       0.02080646      -0.01069305       0.00468354
C       -1.59257531       0.86014408      -0.04761668      -0.00784452       0.01548180       0.05293412
O       -1.22461414       1.48694646       0.93502694      -0.02613386       0.06524782       0.02993398
N       -1.09454215      -0.35613394      -0.35776803       0.06124130       0.06254162      -0.09003444
C       -0.11074745      -1.04680049       0.45681641      -0.04812067      -0.11485100      -0.08434067
C       -0.23081213      -2.54309654       0.27696225      -0.02203437      -0.19734119       0.01950116
C        1.31747937      -0.57210827       0.14318791      -0.03342306       0.03445484       0.00977969
O        2.13275218      -1.29788780      -0.39559829      -0.05706143       0.01617457       0.02020878
N        1.55728734       0.68996668       0.53801847       0.05473488       0.05981934      -0.00441821
C        2.82501221       1.33670306       0.32674882       0.08728097       0.08191197      -0.00206139
H       -3.58096123       1.48841727      -0.44024119      -0.02485020       0.01356511      -0.08052880
H       -2.34339690       2.40418506      -1.29248571       0.05653590      -0.02484365      -0.01021161
H       -2.79553556       0.78267336      -1.86594999       0.10425249      -0.02646531       0.00054872
H       -1.38900709      -0.80016917      -1.20894396      -0.62752026      -0.21388797       0.29595900
H       -0.32834715      -0.77269650       1.49111676      -0.10054241      -0.18915837      -0.07013284
H       -1.23846102      -2.87046957       0.53240800       0.00108874      -0.20287760       0.11517014
H        0.48587266      -3.05349898       0.91744930      -0.00510888      -0.05519948       0.11854741
H       -0.00292823      -2.82970667      -0.75048590      -0.01678289      -0.37251675       0.07217384
H        0.77503353       1.20680821       0.91902333       0.10651249       0.08881244       0.05548463
H        3.52207732       0.59476453      -0.05676650       0.10529535       0.09634941       0.00325391
H        3.21502948       1.74136543       1.26161313       0.06694965       0.08289607       0.00592672
H        2.74027705       2.14842558      -0.39891735       0.08281206       0.08700041       0.00452592
22
Mode 21, Freq: 589.1830 cm⁻¹, Force Const: 1.276557e+00 eV/Å²
C       -2.63922453       1.40241468      -0.98355371       0.15833060      -0.07339723       0.14911208
C       -1.59257531       0.86014408      -0.04761668       0.01799585      -0.14325161       0.04696361
O       -1.22461414       1.48694646       0.93502694      -0.11066068       0.13376959      -0.08088595
N       -1.09454215      -0.35613394      -0.35776803       0.03662407      -0.09604909      -0.00519036
C       -0.11074745      -1.04680049       0.45681641       0.13169774       0.03506320      -0.16131738
C       -0.23081213      -2.54309654       0.27696225       0.00326563       0.05806872      -0.01761603
C        1.31747937      -0.57210827       0.14318791      -0.04494885       0.10052560      -0.11920117
O        2.13275218      -1.29788780      -0.39559829      -0.10445577      -0.08100031       0.05440913
N        1.55728734       0.68996668       0.53801847      -0.03096628       0.04512051       0.10497811
C        2.82501221       1.33670306       0.32674882      -0.02685218      -0.01725493       0.00674381
H       -3.58096123       1.48841727      -0.44024119       0.19526961       0.03287632       0.19047575
H       -2.34339690       2.40418506      -1.29248571       0.36773142      -0.06342202       0.38596573
H       -2.79553556       0.78267336      -1.86594999       0.04562541       0.12945533       0.02992036
H       -1.38900709      -0.80016917      -1.20894396       0.10980383       0.00733796      -0.08332439
H       -0.32834715      -0.77269650       1.49111676       0.21240427       0.05360149      -0.14781237
H       -1.23846102      -2.87046957       0.53240800      -0.07049160       0.33361194       0.04880720
H        0.48587266      -3.05349898       0.91744930      -0.10412290       0.00646525       0.05530540
H       -0.00292823      -2.82970667      -0.75048590      -0.10283078      -0.13533966       0.01446686
H        0.77503353       1.20680821       0.91902333      -0.12733415       0.15417394      -0.22322093
H        3.52207732       0.59476453      -0.05676650      -0.12982817      -0.10261638      -0.01927490
H        3.21502948       1.74136543       1.26161313       0.09393824      -0.01432354      -0.04730097
H        2.74027705       2.14842558      -0.39891735      -0.00811533      -0.05212421      -0.03465806
22
Mode 22, Freq: 631.7527 cm⁻¹, Force Const: 1.467690e+00 eV/Å²
C       -2.63922453       1.40241468      -0.98355371      -0.07581475       0.01676568      -0.02767882
C       -1.59257531       0.86014408      -0.04761668      -0.20547870      -0.08884782       0.13940488
O       -1.22461414       1.48694646       0.93502694       0.11454321       0.01500485      -0.04256310
N       -1.09454215      -0.35613394      -0.35776803       0.06335939       0.05064131      -0.01670835
C       -0.11074745      -1.04680049       0.45681641       0.03021505      -0.01668535       0.01211990
C       -0.23081213      -2.54309654       0.27696225       0.00099404      -0.03705591       0.00147792
C        1.31747937      -0.57210827       0.14318791       0.01832134      -0.00213736       0.04115477
O        2.13275218      -1.29788780      -0.39559829      -0.02093179      -0.00172378      -0.01919634
N        1.55728734       0.68996668       0.53801847      -0.00406581       0.01352579       0.01398006
C        2.82501221       1.33670306       0.32674882       0.00254380      -0.00003572       0.00475050
H       -3.58096123       1.48841727      -0.44024119      -0.30358011       0.25617978      -0.46977711
H       -2.34339690       2.40418506      -1.29248571       0.33063540      -0.06267534       0.08336063
H       -2.79553556       0.78267336      -1.86594999       0.18336903       0.07665031      -0.11791556
H       -1.38900709      -0.80016917      -1.20894396       0.35408366       0.21518484      -0.20462358
H       -0.32834715      -0.77269650       1.49111676      -0.01224647      -0.02646380       0.00273852
H       -1.23846102      -2.87046957       0.53240800      -0.00575321      -0.00897358       0.01068950
H        0.48587266      -3.05349898       0.91744930      -0.00870318      -0.05697798      -0.00191499
H       -0.00292823      -2.82970667      -0.75048590      -0.01959883      -0.05043170       0.00055429
H        0.77503353       1.20680821       0.91902333      -0.11243606       0.10032139      -0.31411824
H        3.52207732       0.59476453      -0.05676650      -0.01658995      -0.01384228      -0.00417758
H        3.21502948       1.74136543       1.26161313       0.02693701       0.00034877      -0.00497014
H        2.74027705       2.14842558      -0.39891735       0.00545552      -0.00661368      -0.00199378
22
Mode 23, Freq: 667.2234 cm⁻¹, Force Const: 1.637127e+00 eV/Å²
C       -2.63922453       1.40241468      -0.98355371      -0.11932401       0.08826956      -0.11422492
C       -1.59257531       0.86014408      -0.04761668       0.04028236       0.08750071      -0.06994567
O       -1.22461414       1.48694646       0.93502694       0.03047431      -0.09352069       0.05173603
N       -1.09454215      -0.35613394      -0.35776803       0.03810477       0.02560358       0.10246769
C       -0.11074745      -1.04680049       0.45681641       0.18338196      -0.03043501      -0.02360764
C       -0.23081213      -2.54309654       0.27696225       0.02245726      -0.07349730      -0.00633064
C        1.31747937      -0.57210827       0.14318791       0.00316491       0.07851034      -0.07699472
O        2.13275218      -1.29788780      -0.39559829      -0.07300248      -0.07054330       0.01781728
N        1.55728734       0.68996668       0.53801847      -0.03217874       0.06182893       0.09185305
C        2.82501221       1.33670306       0.32674882      -0.02043034      -0.00875142       0.01195566
H       -3.58096123       1.48841727      -0.44024119      -0.07095990      -0.02296212      -0.00433161
H       -2.34339690       2.40418506      -1.29248571      -0.32339358       0.11138502      -0.23734394
H       -2.79553556       0.78267336      -1.86594999      -0.16231571       0.00425941      -0.05111972
H       -1.38900709      -0.80016917      -1.20894396      -0.01649509      -0.08473638       0.17683636
H       -0.32834715      -0.77269650       1.49111676       0.33980209      -0.12233534       0.03423060
H       -1.23846102      -2.87046957       0.53240800      -0.06109641       0.22022948       0.05275159
H        0.48587266      -3.05349898       0.91744930      -0.11553004      -0.20266564       0.04309234
H       -0.00292823      -2.82970667      -0.75048590      -0.09415117      -0.21639098       0.00999625
H        0.77503353       1.20680821       0.91902333      -0.20126972       0.19301887      -0.41620222
H        3.52207732       0.59476453      -0.05676650      -0.14263606      -0.11500679      -0.00975149
H        3.21502948       1.74136543       1.26161313       0.11003129      -0.01602752      -0.04078790
H        2.74027705       2.14842558      -0.39891735       0.02552291      -0.04691491      -0.03533886
22
Mode 24, Freq: 698.9348 cm⁻¹, Force Const: 1.796442e+00 eV/Å²
C       -2.63922453       1.40241468      -0.98355371       0.03623119      -0.01614287       0.01998912
C       -1.59257531       0.86014408      -0.04761668       0.02387469       0.00707713      -0.01579294
O       -1.22461414       1.48694646       0.93502694      -0.02191587       0.00006483       0.01131319
N       -1.09454215      -0.35613394      -0.35776803      -0.00863032       0.00569354      -0.01522606
C       -0.11074745      -1.04680049       0.45681641      -0.07384835      -0.00289624       0.04478823
C       -0.23081213      -2.54309654       0.27696225      -0.01383037      -0.00092991       0.00595308
C        1.31747937      -0.57210827       0.14318791      -0.00895714      -0.01976158      -0.00971076
O        2.13275218      -1.29788780      -0.39559829       0.02500766       0.02375533      -0.01976389
N        1.55728734       0.68996668       0.53801847       0.02816726      -0.03411255       0.03471365
C        2.82501221       1.33670306       0.32674882       0.02114537       0.00717186       0.00953138
H       -3.58096123       1.48841727      -0.44024119       0.07000407      -0.05156015       0.08464299
H       -2.34339690       2.40418506      -1.29248571      -0.01777667      -0.00468036       0.00950509
H       -2.79553556       0.78267336      -1.86594999       0.00279600      -0.02793825       0.03570065
H       -1.38900709      -0.80016917      -1.20894396      -0.04786958      -0.01753090       0.01116410
H       -0.32834715      -0.77269650       1.49111676      -0.07005542       0.06127855       0.02599898
H       -1.23846102      -2.87046957       0.53240800       0.02505617      -0.15325156      -0.03924068
H        0.48587266      -3.05349898       0.91744930       0.04786485       0.03870534      -0.03023973
H       -0.00292823      -2.82970667      -0.75048590       0.05417165       0.09875046      -0.00833556
H        0.77503353       1.20680821       0.91902333      -0.22312249       0.27399853      -0.87904042
H        3.52207732       0.59476453      -0.05676650       0.05873572       0.06144707      -0.02402176
H        3.21502948       1.74136543       1.26161313       0.01738379       0.03130447       0.00218015
H        2.74027705       2.14842558      -0.39891735      -0.05441760       0.00993942       0.02253795
22
Mode 25, Freq: 797.6668 cm⁻¹, Force Const: 2.339823e+00 eV/Å²
C       -2.63922453       1.40241468      -0.98355371       0.03115856      -0.00297242       0.01356416
C       -1.59257531       0.86014408      -0.04761668       0.01613167       0.02928537       0.00244893
O       -1.22461414       1.48694646       0.93502694      -0.01704098       0.02649486       0.02891903
N       -1.09454215      -0.35613394      -0.35776803      -0.13120468      -0.04687410      -0.04867547
C       -0.11074745      -1.04680049       0.45681641       0.07528786       0.00696420      -0.12716053
C       -0.23081213      -2.54309654       0.27696225       0.02765327       0.06447340      -0.03134583
C        1.31747937      -0.57210827       0.14318791       0.23965812      -0.10886044       0.38645536
O        2.13275218      -1.29788780      -0.39559829      -0.03047192      -0.06125916      -0.14494012
N        1.55728734       0.68996668       0.53801847      -0.07181685       0.11531787      -0.02889380
C        2.82501221       1.33670306       0.32674882      -0.02586580       0.00528305       0.01257876
H       -3.58096123       1.48841727      -0.44024119       0.03440185      -0.06974410       0.03122973
H       -2.34339690       2.40418506      -1.29248571      -0.07209031      -0.00123704      -0.07248393
H       -2.79553556       0.78267336      -1.86594999       0.06021803      -0.08255091       0.06544102
H       -1.38900709      -0.80016917      -1.20894396      -0.24634624      -0.01533958      -0.02829742
H       -0.32834715      -0.77269650       1.49111676      -0.21928731      -0.14501679      -0.14754978
H       -1.23846102      -2.87046957       0.53240800       0.00066164       0.30118945       0.17358217
H        0.48587266      -3.05349898       0.91744930      -0.05924745       0.14250912       0.12974802
H       -0.00292823      -2.82970667      -0.75048590      -0.08467638      -0.28340551       0.04545923
H        0.77503353       1.20680821       0.91902333      -0.21557213       0.09239889      -0.27052081
H        3.52207732       0.59476453      -0.05676650      -0.21186237      -0.17976408       0.02348902
H        3.21502948       1.74136543       1.26161313       0.12021419      -0.03966396      -0.02772816
H        2.74027705       2.14842558      -0.39891735       0.13127841      -0.04925558      -0.05984925
22
Mode 26, Freq: 873.0435 cm⁻¹, Force Const: 2.802927e+00 eV/Å²
C       -2.63922453       1.40241468      -0.98355371      -0.02073295       0.00792084      -0.02521221
C       -1.59257531       0.86014408      -0.04761668       0.01319797      -0.00905705       0.00203301
O       -1.22461414       1.48694646       0.93502694      -0.00122373      -0.00736427       0.00042229
N       -1.09454215      -0.35613394      -0.35776803       0.03061718      -0.00935504       0.05242096
C       -0.11074745      -1.04680049       0.45681641       0.06450523      -0.01471644      -0.07977039
C       -0.23081213      -2.54309654       0.27696225       0.04357046       0.07020772      -0.04433145
C        1.31747937      -0.57210827       0.14318791      -0.10848864      -0.03441315       0.09894460
O        2.13275218      -1.29788780      -0.39559829      -0.06279518       0.13575019       0.04997794
N        1.55728734       0.68996668       0.53801847       0.06749720      -0.14097646      -0.08222890
C        2.82501221       1.33670306       0.32674882       0.00291877      -0.05363723      -0.01703018
H       -3.58096123       1.48841727      -0.44024119       0.00287081       0.02047545       0.01571065
H       -2.34339690       2.40418506      -1.29248571      -0.01559245       0.01929848       0.01364125
H       -2.79553556       0.78267336      -1.86594999      -0.07425651       0.05351832      -0.04896066
H       -1.38900709      -0.80016917      -1.20894396       0.02492516      -0.01971988       0.06063046
H       -0.32834715      -0.77269650       1.49111676       0.03322181      -0.25506553      -0.02157850
H       -1.23846102      -2.87046957       0.53240800      -0.00871027       0.40301499       0.18329506
H        0.48587266      -3.05349898       0.91744930      -0.07241899       0.16262613       0.15688710
H       -0.00292823      -2.82970667      -0.75048590      -0.09620544      -0.31668058       0.04080827
H        0.77503353       1.20680821       0.91902333       0.13839674       0.03378872      -0.19613686
H        3.52207732       0.59476453      -0.05676650       0.34562057       0.28229311      -0.02321644
H        3.21502948       1.74136543       1.26161313      -0.31282791       0.02076036       0.08555142
H        2.74027705       2.14842558      -0.39891735      -0.25236475       0.04842842       0.12651052
22
Mode 27, Freq: 917.0046 cm⁻¹, Force Const: 3.092310e+00 eV/Å²
C       -2.63922453       1.40241468      -0.98355371      -0.01713780       0.04517766       0.01344487
C       -1.59257531       0.86014408      -0.04761668       0.01698898       0.02432434       0.03936601
O       -1.22461414       1.48694646       0.93502694      -0.00247360       0.06641427       0.05229753
N       -1.09454215      -0.35613394      -0.35776803      -0.05037358      -0.09318020      -0.13921948
C       -0.11074745      -1.04680049       0.45681641       0.08674482       0.00263975       0.03231465
C       -0.23081213      -2.54309654       0.27696225       0.06724168      -0.04293582       0.06756505
C        1.31747937      -0.57210827       0.14318791      -0.02276850       0.00639339       0.01246984
O        2.13275218      -1.29788780      -0.39559829      -0.02230600       0.02701963       0.01824879
N        1.55728734       0.68996668       0.53801847       0.02320463      -0.03140126      -0.01758433
C        2.82501221       1.33670306       0.32674882      -0.01898139      -0.02705699      -0.00232402
H       -3.58096123       1.48841727      -0.44024119      -0.11259282      -0.02862976      -0.14014520
H       -2.34339690       2.40418506      -1.29248571      -0.11735579       0.01114463      -0.19198954
H       -2.79553556       0.78267336      -1.86594999       0.15377231      -0.13137877       0.10323088
H       -1.38900709      -0.80016917      -1.20894396      -0.09208032      -0.08029609      -0.13802588
H       -0.32834715      -0.77269650       1.49111676      -0.01659692       0.31283247      -0.07288737
H       -1.23846102      -2.87046957       0.53240800      -0.08427659       0.22985271      -0.17312542
H        0.48587266      -3.05349898       0.91744930      -0.10047609      -0.58995122      -0.19579773
H       -0.00292823      -2.82970667      -0.75048590      -0.13057768       0.33264831      -0.08835047
H        0.77503353       1.20680821       0.91902333       0.05385944       0.02748212      -0.04812668
H        3.52207732       0.59476453      -0.05676650       0.07662150       0.06601694      -0.00242221
H        3.21502948       1.74136543       1.26161313      -0.10812110      -0.00691777       0.02703537
H        2.74027705       2.14842558      -0.39891735      -0.08693933       0.00358513       0.03950432
22
Mode 28, Freq: 983.5326 cm⁻¹, Force Const: 3.557275e+00 eV/Å²
C       -2.63922453       1.40241468      -0.98355371       0.15413192      -0.02819747       0.16926305
C       -1.59257531       0.86014408      -0.04761668      -0.15838444       0.09474760      -0.12190456
O       -1.22461414       1.48694646       0.93502694      -0.03085354      -0.13189758      -0.14236432
N       -1.09454215      -0.35613394      -0.35776803      -0.08560627       0.20302266       0.04484646
C       -0.11074745      -1.04680049       0.45681641       0.06909814       0.11519270       0.03293979
C       -0.23081213      -2.54309654       0.27696225       0.04001416      -0.14963396      -0.00387137
C        1.31747937      -0.57210827       0.14318791       0.03052475       0.03421321       0.04053043
O        2.13275218      -1.29788780      -0.39559829      -0.02309618       0.01857026       0.00798217
N        1.55728734       0.68996668       0.53801847       0.04398847      -0.02087034      -0.02979812
C        2.82501221       1.33670306       0.32674882      -0.05149630      -0.05057675       0.00077210
H       -3.58096123       1.48841727      -0.44024119       0.09085631      -0.16683643       0.06936252
H       -2.34339690       2.40418506      -1.29248571       0.09194446      -0.07836968      -0.02444039
H       -2.79553556       0.78267336      -1.86594999       0.43480855      -0.32311648       0.34059805
H       -1.38900709      -0.80016917      -1.20894396      -0.00955874       0.10696365       0.07077920
H       -0.32834715      -0.77269650       1.49111676       0.18271279       0.09080082       0.06483428
H       -1.23846102      -2.87046957       0.53240800      -0.02565977       0.02129923      -0.01683350
H        0.48587266      -3.05349898       0.91744930      -0.08361396      -0.36276332      -0.03265796
H       -0.00292823      -2.82970667      -0.75048590      -0.07905325      -0.17125154      -0.02624095
H        0.77503353       1.20680821       0.91902333       0.05300192      -0.03805328       0.00473005
H        3.52207732       0.59476453      -0.05676650       0.04493074       0.04357165      -0.00055068
H        3.21502948       1.74136543       1.26161313      -0.14243533      -0.02329492       0.02827292
H        2.74027705       2.14842558      -0.39891735      -0.12291285      -0.01899555       0.04313153
22
Mode 29, Freq: 1014.1821 cm⁻¹, Force Const: 3.782438e+00 eV/Å²
C       -2.63922453       1.40241468      -0.98355371      -0.00561172      -0.10308616      -0.10111260
C       -1.59257531       0.86014408      -0.04761668       0.01343884      -0.01301971       0.01531480
O       -1.22461414       1.48694646       0.93502694       0.02501833       0.00236400       0.03427076
N       -1.09454215      -0.35613394      -0.35776803      -0.03592248       0.06126347       0.02063217
C       -0.11074745      -1.04680049       0.45681641       0.02385035       0.06693505      -0.04335990
C       -0.23081213      -2.54309654       0.27696225      -0.00397658      -0.07731076       0.03269131
C        1.31747937      -0.57210827       0.14318791       0.02949402       0.01209570       0.04847268
O        2.13275218      -1.29788780      -0.39559829      -0.01940241       0.01188029       0.00008048
N        1.55728734       0.68996668       0.53801847       0.02393973      -0.00066672      -0.01803576
C        2.82501221       1.33670306       0.32674882      -0.03249033      -0.03202295       0.00082900
H       -3.58096123       1.48841727      -0.44024119       0.21276745       0.09752747       0.25186345
H       -2.34339690       2.40418506      -1.29248571       0.15242843      -0.00368288       0.36073321
H       -2.79553556       0.78267336      -1.86594999      -0.43080583       0.32321662      -0.32009274
H       -1.38900709      -0.80016917      -1.20894396      -0.12980823       0.17456988      -0.00248035
H       -0.32834715      -0.77269650       1.49111676       0.06645402       0.30254623      -0.09629620
H       -1.23846102      -2.87046957       0.53240800      -0.01715461      -0.15185222      -0.11661897
H        0.48587266      -3.05349898       0.91744930       0.01120098      -0.22293420      -0.10310889
H       -0.00292823      -2.82970667      -0.75048590       0.00916702       0.12446753      -0.02718076
H        0.77503353       1.20680821       0.91902333       0.04736119       0.02566470      -0.00996562
H        3.52207732       0.59476453      -0.05676650       0.02856474       0.02872755      -0.00114050
H        3.21502948       1.74136543       1.26161313      -0.08872399      -0.01066664       0.01581632
H        2.74027705       2.14842558      -0.39891735      -0.07844909      -0.01115307       0.02916674
22
Mode 30, Freq: 1054.0039 cm⁻¹, Force Const: 4.085303e+00 eV/Å²
C       -2.63922453       1.40241468      -0.98355371      -0.11687813      -0.07904421       0.09188627
C       -1.59257531       0.86014408      -0.04761668       0.14346193       0.08930308      -0.11056875
O       -1.22461414       1.48694646       0.93502694      -0.02825870      -0.01569544       0.02215678
N       -1.09454215      -0.35613394      -0.35776803      -0.02708323      -0.01118074       0.01405470
C       -0.11074745      -1.04680049       0.45681641       0.00294456       0.00705781       0.00217425
C       -0.23081213      -2.54309654       0.27696225      -0.00261297      -0.00547157      -0.00225847
C        1.31747937      -0.57210827       0.14318791       0.00280004       0.00053203       0.00273747
O        2.13275218      -1.29788780      -0.39559829      -0.00061181      -0.00035881      -0.00075875
N        1.55728734       0.68996668       0.53801847       0.00406982       0.00153967      -0.00046389
C        2.82501221       1.33670306       0.32674882      -0.00555603      -0.00443188       0.00077500
H       -3.58096123       1.48841727      -0.44024119      -0.33516434       0.38202018      -0.39422512
H       -2.34339690       2.40418506      -1.29248571       0.53614116      -0.22612418       0.18729506
H       -2.79553556       0.78267336      -1.86594999       0.29920131       0.15965477      -0.15065604
H       -1.38900709      -0.80016917      -1.20894396      -0.01770125      -0.02194014       0.01580936
H       -0.32834715      -0.77269650       1.49111676       0.01508783       0.00409300       0.00643807
H       -1.23846102      -2.87046957       0.53240800       0.00210844      -0.01552708       0.00334332
H        0.48587266      -3.05349898       0.91744930       0.00063327       0.00264186       0.00096002
H       -0.00292823      -2.82970667      -0.75048590       0.00586795      -0.01146277       0.00145009
H        0.77503353       1.20680821       0.91902333       0.00637867       0.02105756      -0.02166627
H        3.52207732       0.59476453      -0.05676650       0.00113940       0.00289505      -0.00060849
H        3.21502948       1.74136543       1.26161313      -0.01090660      -0.00075900       0.00154305
H        2.74027705       2.14842558      -0.39891735      -0.01264114      -0.00244126       0.00359589
22
Mode 31, Freq: 1059.0908 cm⁻¹, Force Const: 4.124832e+00 eV/Å²
C       -2.63922453       1.40241468      -0.98355371       0.01587727      -0.06452073      -0.02485760
C       -1.59257531       0.86014408      -0.04761668      -0.01999767       0.02641226      -0.00543283
O       -1.22461414       1.48694646       0.93502694       0.01275210      -0.00331621       0.01056153
N       -1.09454215      -0.35613394      -0.35776803      -0.04716346       0.05940892      -0.04912040
C       -0.11074745      -1.04680049       0.45681641      -0.05310684      -0.04991411       0.10225951
C       -0.23081213      -2.54309654       0.27696225       0.12154678       0.03082738      -0.00967922
C        1.31747937      -0.57210827       0.14318791      -0.02287517      -0.00535450      -0.06211383
O        2.13275218      -1.29788780      -0.39559829       0.03791611      -0.02229871      -0.00734036
N        1.55728734       0.68996668       0.53801847      -0.01909886      -0.00706290       0.01689676
C        2.82501221       1.33670306       0.32674882       0.02534917       0.03657318       0.00256390
H       -3.58096123       1.48841727      -0.44024119       0.10831969       0.04520170       0.11856252
H       -2.34339690       2.40418506      -1.29248571       0.10836550      -0.02336404       0.19245496
H       -2.79553556       0.78267336      -1.86594999      -0.13703676       0.11134945      -0.11574675
H       -1.38900709      -0.80016917      -1.20894396      -0.08916406       0.12907939      -0.07165501
H       -0.32834715      -0.77269650       1.49111676      -0.28345028      -0.34573102       0.12898219
H       -1.23846102      -2.87046957       0.53240800      -0.04140924       0.59000558       0.10523434
H        0.48587266      -3.05349898       0.91744930      -0.17348436      -0.24826266       0.08920570
H       -0.00292823      -2.82970667      -0.75048590      -0.22973117      -0.14595434      -0.02855550
H        0.77503353       1.20680821       0.91902333      -0.07562905      -0.07141459      -0.00193557
H        3.52207732       0.59476453      -0.05676650      -0.06805491      -0.05687948       0.00636468
H        3.21502948       1.74136543       1.26161313       0.10731415       0.00090384      -0.01738748
H        2.74027705       2.14842558      -0.39891735       0.09463432       0.00375855      -0.04152416
22
Mode 32, Freq: 1076.1229 cm⁻¹, Force Const: 4.258569e+00 eV/Å²
C       -2.63922453       1.40241468      -0.98355371       0.01492976      -0.01609043       0.01627623
C       -1.59257531       0.86014408      -0.04761668      -0.02483966       0.02917698      -0.02666452
O       -1.22461414       1.48694646       0.93502694      -0.00169153      -0.03905076      -0.03471946
N       -1.09454215      -0.35613394      -0.35776803       0.00076376       0.05691392       0.05091779
C       -0.11074745      -1.04680049       0.45681641       0.05965449      -0.06299527      -0.11432006
C       -0.23081213      -2.54309654       0.27696225       0.02296218       0.04154779       0.08104353
C        1.31747937      -0.57210827       0.14318791      -0.14630388      -0.19001205       0.05396054
O        2.13275218      -1.29788780      -0.39559829      -0.00120137       0.03938201       0.00069186
N        1.55728734       0.68996668       0.53801847      -0.19248146      -0.05666049       0.03286834
C        2.82501221       1.33670306       0.32674882       0.21833612       0.13976850      -0.02492277
H       -3.58096123       1.48841727      -0.44024119       0.02522773       0.00041705       0.02900639
H       -2.34339690       2.40418506      -1.29248571       0.05467969      -0.01892419       0.04591774
H       -2.79553556       0.78267336      -1.86594999       0.03369103      -0.00834102       0.01103587
H       -1.38900709      -0.80016917      -1.20894396      -0.06536872       0.12729079       0.03826507
H       -0.32834715      -0.77269650       1.49111676       0.38260633       0.21875611      -0.12202598
H       -1.23846102      -2.87046957       0.53240800      -0.02961251       0.02930396      -0.16945577
H        0.48587266      -3.05349898       0.91744930       0.05020510      -0.17695096      -0.13729556
H       -0.00292823      -2.82970667      -0.75048590       0.02073284       0.39424843      -0.02677015
H        0.77503353       1.20680821       0.91902333      -0.23286808      -0.11130099       0.05321791
H        3.52207732       0.59476453      -0.05676650       0.12674178       0.05226438      -0.02985196
H        3.21502948       1.74136543       1.26161313       0.32735753       0.09657476      -0.05439261
H        2.74027705       2.14842558      -0.39891735       0.29193798       0.08619867      -0.08754984
22
Mode 33, Freq: 1156.1276 cm⁻¹, Force Const: 4.915316e+00 eV/Å²
C       -2.63922453       1.40241468      -0.98355371       0.00026559      -0.00096260      -0.00039279
C       -1.59257531       0.86014408      -0.04761668      -0.00056722       0.00149474       0.00021782
O       -1.22461414       1.48694646       0.93502694       0.00033119       0.00049032       0.00095828
N       -1.09454215      -0.35613394      -0.35776803      -0.00165377      -0.00106714      -0.00136302
C       -0.11074745      -1.04680049       0.45681641       0.00643941       0.00362809      -0.00053604
C       -0.23081213      -2.54309654       0.27696225      -0.00182173      -0.00214387      -0.00615628
C        1.31747937      -0.57210827       0.14318791      -0.01080368      -0.01608508       0.00783763
O        2.13275218      -1.29788780      -0.39559829      -0.00492264       0.01196353       0.00552976
N        1.55728734       0.68996668       0.53801847       0.04290064      -0.03270894       0.05094795
C        2.82501221       1.33670306       0.32674882      -0.06067519       0.06224606      -0.11410902
H       -3.58096123       1.48841727      -0.44024119       0.00212652       0.00102895       0.00242015
H       -2.34339690       2.40418506      -1.29248571       0.00192881      -0.00023467       0.00351433
H       -2.79553556       0.78267336      -1.86594999      -0.00067844       0.00068568      -0.00118566
H       -1.38900709      -0.80016917      -1.20894396       0.00254834      -0.00359585      -0.00159627
H       -0.32834715      -0.77269650       1.49111676       0.03096120       0.04460603      -0.00600822
H       -1.23846102      -2.87046957       0.53240800       0.00331939      -0.00623587       0.00677225
H        0.48587266      -3.05349898       0.91744930       0.00200995       0.01654337       0.00504062
H       -0.00292823      -2.82970667      -0.75048590       0.00491457      -0.02084310       0.00088316
H        0.77503353       1.20680821       0.91902333       0.00647469      -0.01819094      -0.04974713
H        3.52207732       0.59476453      -0.05676650      -0.06505114      -0.16705711       0.31164697
H        3.21502948       1.74136543       1.26161313      -0.32297498      -0.44010496       0.21814202
H        2.74027705       2.14842558      -0.39891735       0.63442659       0.29101411       0.06623920
22
Mode 34, Freq: 1162.8533 cm⁻¹, Force Const: 4.972671e+00 eV/Å²
C       -2.63922453       1.40241468      -0.98355371       0.01577229      -0.01818113       0.00807998
C       -1.59257531       0.86014408      -0.04761668      -0.02360808       0.02350568      -0.01424006
O       -1.22461414       1.48694646       0.93502694      -0.00370532      -0.02580267      -0.02422371
N       -1.09454215      -0.35613394      -0.35776803      -0.04126099       0.05634851      -0.02334451
C       -0.11074745      -1.04680049       0.45681641       0.07263448      -0.22225314      -0.02226523
C       -0.23081213      -2.54309654       0.27696225      -0.04576806       0.11158472       0.10143844
C        1.31747937      -0.57210827       0.14318791       0.04554463       0.05928654      -0.00998740
O        2.13275218      -1.29788780      -0.39559829      -0.01082147      -0.02008338      -0.00096162
N        1.55728734       0.68996668       0.53801847       0.02354032       0.05618266       0.02281436
C        2.82501221       1.33670306       0.32674882      -0.02715812      -0.07156907      -0.03336157
H       -3.58096123       1.48841727      -0.44024119       0.03234733      -0.00345785       0.03296946
H       -2.34339690       2.40418506      -1.29248571       0.03476240      -0.01353901       0.04228751
H       -2.79553556       0.78267336      -1.86594999       0.01182279      -0.00660317       0.00267997
H       -1.38900709      -0.80016917      -1.20894396      -0.19732133       0.28093991      -0.09081684
H       -0.32834715      -0.77269650       1.49111676       0.04261870      -0.47613731       0.02962949
H       -1.23846102      -2.87046957       0.53240800      -0.02113304      -0.10760693      -0.12543173
H        0.48587266      -3.05349898       0.91744930       0.12189767       0.08637130      -0.10830633
H       -0.00292823      -2.82970667      -0.75048590       0.12113662       0.49863887       0.02595102
H        0.77503353       1.20680821       0.91902333       0.09340470       0.16047964       0.02923750
H        3.52207732       0.59476453      -0.05676650       0.19259004       0.11471842       0.02529929
H        3.21502948       1.74136543       1.26161313      -0.28587219      -0.03324036       0.06052911
H        2.74027705       2.14842558      -0.39891735      -0.11528952       0.06562173       0.12960888
22
Mode 35, Freq: 1172.2521 cm⁻¹, Force Const: 5.053380e+00 eV/Å²
C       -2.63922453       1.40241468      -0.98355371       0.00504807      -0.01433591      -0.00892063
C       -1.59257531       0.86014408      -0.04761668      -0.01030931       0.00498900      -0.00113484
O       -1.22461414       1.48694646       0.93502694       0.00882692       0.02126870       0.02770032
N       -1.09454215      -0.35613394      -0.35776803      -0.03879208      -0.01220142      -0.06035478
C       -0.11074745      -1.04680049       0.45681641       0.05274315       0.06133989       0.09322622
C       -0.23081213      -2.54309654       0.27696225      -0.02443220      -0.02952632      -0.06628486
C        1.31747937      -0.57210827       0.14318791       0.02747154       0.02532479      -0.01351437
O        2.13275218      -1.29788780      -0.39559829       0.02267090      -0.04350404      -0.01887906
N        1.55728734       0.68996668       0.53801847      -0.15292360       0.03026646       0.07636202
C        2.82501221       1.33670306       0.32674882       0.12048630      -0.07168232      -0.09598126
H       -3.58096123       1.48841727      -0.44024119       0.02771581       0.01041547       0.02784541
H       -2.34339690       2.40418506      -1.29248571       0.00951928       0.00039532       0.04228240
H       -2.79553556       0.78267336      -1.86594999      -0.02769938       0.01277065      -0.01987604
H       -1.38900709      -0.80016917      -1.20894396       0.05100793      -0.11126768      -0.04350154
H       -0.32834715      -0.77269650       1.49111676       0.03945542       0.08438447       0.08605847
H       -1.23846102      -2.87046957       0.53240800       0.04366485      -0.09135369       0.12941819
H        0.48587266      -3.05349898       0.91744930      -0.02205178       0.12895352       0.07182444
H       -0.00292823      -2.82970667      -0.75048590       0.04823251      -0.26448718       0.02055340
H        0.77503353       1.20680821       0.91902333      -0.12861608       0.08102527       0.10566332
H        3.52207732       0.59476453      -0.05676650       0.58283728       0.33117214       0.00785936
H        3.21502948       1.74136543       1.26161313      -0.39966863       0.01427798       0.08464058
H        2.74027705       2.14842558      -0.39891735      -0.09795196       0.19027980       0.22829652
22
Mode 36, Freq: 1195.3331 cm⁻¹, Force Const: 5.254335e+00 eV/Å²
C       -2.63922453       1.40241468      -0.98355371      -0.02245822       0.04764222       0.01545735
C       -1.59257531       0.86014408      -0.04761668       0.04876188      -0.05273271       0.00904101
O       -1.22461414       1.48694646       0.93502694      -0.01662389      -0.02664204      -0.04143258
N       -1.09454215      -0.35613394      -0.35776803       0.10092457      -0.00098254       0.14257094
C       -0.11074745      -1.04680049       0.45681641      -0.19476964       0.04603516      -0.14187002
C       -0.23081213      -2.54309654       0.27696225       0.09052212      -0.02033759       0.06608179
C        1.31747937      -0.57210827       0.14318791       0.04000425       0.01553763       0.00683906
O        2.13275218      -1.29788780      -0.39559829       0.03644786      -0.04826138      -0.03492297
N        1.55728734       0.68996668       0.53801847      -0.03438208       0.06685674       0.04479894
C        2.82501221       1.33670306       0.32674882       0.01033194      -0.06255867      -0.05152277
H       -3.58096123       1.48841727      -0.44024119      -0.09503888      -0.03500903      -0.09967031
H       -2.34339690       2.40418506      -1.29248571      -0.05053761       0.00549271      -0.14476922
H       -2.79553556       0.78267336      -1.86594999       0.04488224      -0.02042083       0.04321940
H       -1.38900709      -0.80016917      -1.20894396      -0.00059717       0.09328903       0.13953409
H       -0.32834715      -0.77269650       1.49111676      -0.39741525       0.03307575      -0.17985390
H       -1.23846102      -2.87046957       0.53240800      -0.07639547       0.27532345      -0.17370518
H        0.48587266      -3.05349898       0.91744930      -0.06690111      -0.36289525      -0.05742254
H       -0.00292823      -2.82970667      -0.75048590      -0.22333162       0.16057551      -0.06018870
H        0.77503353       1.20680821       0.91902333       0.04084875       0.19175167       0.03938884
H        3.52207732       0.59476453      -0.05676650       0.27072257       0.15090571       0.03274208
H        3.21502948       1.74136543       1.26161313      -0.28957638      -0.01811654       0.05790927
H        2.74027705       2.14842558      -0.39891735      -0.06700385       0.11425990       0.15465969
22
Mode 37, Freq: 1275.1619 cm⁻¹, Force Const: 5.979578e+00 eV/Å²
C       -2.63922453       1.40241468      -0.98355371      -0.00049743       0.00861809       0.00708883
C       -1.59257531       0.86014408      -0.04761668       0.02516668      -0.03060263       0.01384875
O       -1.22461414       1.48694646       0.93502694      -0.00630131      -0.01233245      -0.02349148
N       -1.09454215      -0.35613394      -0.35776803      -0.00883383       0.02211750      -0.00338589
C       -0.11074745      -1.04680049       0.45681641      -0.01846265      -0.07497000       0.05575053
C       -0.23081213      -2.54309654       0.27696225       0.02705907       0.01223625      -0.06222270
C        1.31747937      -0.57210827       0.14318791      -0.07914936      -0.10458257       0.00433254
O        2.13275218      -1.29788780      -0.39559829       0.03504002      -0.02318550      -0.02162130
N        1.55728734       0.68996668       0.53801847       0.03500410       0.09180447       0.01654199
C        2.82501221       1.33670306       0.32674882      -0.05358654      -0.02155431       0.01620415
H       -3.58096123       1.48841727      -0.44024119      -0.03476754      -0.01888048      -0.04867492
H       -2.34339690       2.40418506      -1.29248571      -0.02623672      -0.00472393      -0.05903180
H       -2.79553556       0.78267336      -1.86594999      -0.02012341       0.01639523      -0.00137224
H       -1.38900709      -0.80016917      -1.20894396      -0.17158933       0.25491557      -0.06631299
H       -0.32834715      -0.77269650       1.49111676       0.34054297       0.51807022      -0.02092676
H       -1.23846102      -2.87046957       0.53240800       0.02937711       0.16062400       0.13227479
H        0.48587266      -3.05349898       0.91744930      -0.05787586       0.12133332       0.11875101
H       -0.00292823      -2.82970667      -0.75048590      -0.02472023      -0.12266172      -0.02603216
H        0.77503353       1.20680821       0.91902333       0.34569761       0.48317921       0.08308977
H        3.52207732       0.59476453      -0.05676650       0.00392659       0.04244436      -0.00110908
H        3.21502948       1.74136543       1.26161313      -0.00220802       0.03888546      -0.02351173
H        2.74027705       2.14842558      -0.39891735      -0.01656711       0.00359983       0.02900006
22
Mode 38, Freq: 1281.9093 cm⁻¹, Force Const: 6.043026e+00 eV/Å²
C       -2.63922453       1.40241468      -0.98355371      -0.00796308       0.03764481       0.02439268
C       -1.59257531       0.86014408      -0.04761668       0.10030470      -0.12042043       0.02532770
O       -1.22461414       1.48694646       0.93502694      -0.02718000      -0.01500757      -0.04312562
N       -1.09454215      -0.35613394      -0.35776803      -0.02125424       0.04847828       0.02965312
C       -0.11074745      -1.04680049       0.45681641       0.05538518      -0.01632563       0.05535396
C       -0.23081213      -2.54309654       0.27696225      -0.01215869      -0.00421329      -0.02936780
C        1.31747937      -0.57210827       0.14318791       0.04868905       0.06476875      -0.01291344
O        2.13275218      -1.29788780      -0.39559829      -0.02648139       0.01812114       0.01933720
N        1.55728734       0.68996668       0.53801847      -0.02347842      -0.06355273      -0.01202719
C        2.82501221       1.33670306       0.32674882       0.03454918       0.01733943      -0.00490160
H       -3.58096123       1.48841727      -0.44024119      -0.13511573      -0.06513906      -0.18350932
H       -2.34339690       2.40418506      -1.29248571      -0.09437125      -0.01861092      -0.23438428
H       -2.79553556       0.78267336      -1.86594999      -0.05705734       0.06719753      -0.00898957
H       -1.38900709      -0.80016917      -1.20894396      -0.41891325       0.57913244      -0.10299173
H       -0.32834715      -0.77269650       1.49111676      -0.29373643       0.24041304      -0.08475332
H       -1.23846102      -2.87046957       0.53240800       0.02824662      -0.03230560       0.08479804
H        0.48587266      -3.05349898       0.91744930      -0.02520664       0.05060523       0.03603573
H       -0.00292823      -2.82970667      -0.75048590       0.03618839      -0.06348552       0.00429381
H        0.77503353       1.20680821       0.91902333      -0.19712508      -0.28419748      -0.03944062
H        3.52207732       0.59476453      -0.05676650      -0.01351843      -0.02804559      -0.00612373
H        3.21502948       1.74136543       1.26161313       0.02731245      -0.01836895       0.00810253
H        2.74027705       2.14842558      -0.39891735       0.00938316      -0.01445538      -0.03020729
22
Mode 39, Freq: 1349.0182 cm⁻¹, Force Const: 6.692301e+00 eV/Å²
C       -2.63922453       1.40241468      -0.98355371       0.02520142      -0.00121127       0.03005539
C       -1.59257531       0.86014408      -0.04761668       0.06834055      -0.07212330       0.03357660
O       -1.22461414       1.48694646       0.93502694      -0.01354941       0.00316592      -0.01479287
N       -1.09454215      -0.35613394      -0.35776803      -0.02634600       0.02118282      -0.04314720
C       -0.11074745      -1.04680049       0.45681641      -0.03548030       0.11300287      -0.00169700
C       -0.23081213      -2.54309654       0.27696225       0.00774963      -0.00332031       0.03156758
C        1.31747937      -0.57210827       0.14318791      -0.01360628      -0.03193085       0.01647819
O        2.13275218      -1.29788780      -0.39559829       0.00781976      -0.00138543      -0.00730454
N        1.55728734       0.68996668       0.53801847      -0.00218723       0.00659932       0.00117031
C        2.82501221       1.33670306       0.32674882      -0.00697374       0.00225073       0.00154128
H       -3.58096123       1.48841727      -0.44024119      -0.12789753       0.03381432      -0.23394772
H       -2.34339690       2.40418506      -1.29248571      -0.19045714       0.00046843      -0.17975713
H       -2.79553556       0.78267336      -1.86594999      -0.18674192       0.16072980      -0.06237926
H       -1.38900709      -0.80016917      -1.20894396      -0.06702588       0.11507161      -0.07474798
H       -0.32834715      -0.77269650       1.49111676       0.51785672      -0.55693924       0.29146346
H       -1.23846102      -2.87046957       0.53240800       0.00883726      -0.13838699      -0.10656516
H        0.48587266      -3.05349898       0.91744930      -0.03016230      -0.15371235      -0.04547887
H       -0.00292823      -2.82970667      -0.75048590      -0.06997525      -0.04851498       0.02180812
H        0.77503353       1.20680821       0.91902333       0.04879123       0.08277994      -0.00022372
H        3.52207732       0.59476453      -0.05676650       0.00515923       0.01167595       0.00437862
H        3.21502948       1.74136543       1.26161313       0.01758881      -0.00231921      -0.00524716
H        2.74027705       2.14842558      -0.39891735       0.02250125       0.00156325      -0.00412795
22
Mode 40, Freq: 1364.4298 cm⁻¹, Force Const: 6.846085e+00 eV/Å²
C       -2.63922453       1.40241468      -0.98355371       0.01168256      -0.00454115       0.00823650
C       -1.59257531       0.86014408      -0.04761668       0.00763414      -0.00554093       0.01016430
O       -1.22461414       1.48694646       0.93502694      -0.00184537      -0.00836002      -0.01111631
N       -1.09454215      -0.35613394      -0.35776803      -0.01736068       0.00900136       0.01753801
C       -0.11074745      -1.04680049       0.45681641       0.14396837       0.09331514       0.00051537
C       -0.23081213      -2.54309654       0.27696225      -0.04364515      -0.01362739       0.01609518
C        1.31747937      -0.57210827       0.14318791      -0.10346437      -0.08331469      -0.02744862
O        2.13275218      -1.29788780      -0.39559829       0.04189280      -0.01612569      -0.01514016
N        1.55728734       0.68996668       0.53801847      -0.00663124       0.01579961       0.01189673
C        2.82501221       1.33670306       0.32674882      -0.02025807       0.01525216       0.01342238
H       -3.58096123       1.48841727      -0.44024119      -0.02213774       0.02859719      -0.05256232
H       -2.34339690       2.40418506      -1.29248571      -0.06473180       0.00635603      -0.03338933
H       -2.79553556       0.78267336      -1.86594999      -0.04338202       0.04131172      -0.01725757
H       -1.38900709      -0.80016917      -1.20894396      -0.01984465       0.00424063       0.02091418
H       -0.32834715      -0.77269650       1.49111676      -0.73428440      -0.26738223      -0.09813050
H       -1.23846102      -2.87046957       0.53240800       0.00235941      -0.12684976       0.01831036
H        0.48587266      -3.05349898       0.91744930       0.07604393      -0.04610314      -0.12968551
H       -0.00292823      -2.82970667      -0.75048590       0.16841803      -0.01181510       0.05797221
H        0.77503353       1.20680821       0.91902333       0.26746067       0.39213148       0.03352829
H        3.52207732       0.59476453      -0.05676650      -0.01414148       0.02542924       0.00433431
H        3.21502948       1.74136543       1.26161313       0.07594000      -0.00651088      -0.01370924
H        2.74027705       2.14842558      -0.39891735       0.05470254      -0.01378630      -0.03265216
22
Mode 41, Freq: 1386.4410 cm⁻¹, Force Const: 7.068751e+00 eV/Å²
C       -2.63922453       1.40241468      -0.98355371      -0.10528244       0.07624680      -0.07088675
C       -1.59257531       0.86014408      -0.04761668       0.04149332      -0.05003737       0.01744267
O       -1.22461414       1.48694646       0.93502694      -0.00377110       0.00516661      -0.00125351
N       -1.09454215      -0.35613394      -0.35776803      -0.00579512       0.00409501      -0.00798470
C       -0.11074745      -1.04680049       0.45681641       0.00319990       0.03934585       0.00632720
C       -0.23081213      -2.54309654       0.27696225       0.00360205       0.03189492       0.00809694
C        1.31747937      -0.57210827       0.14318791      -0.00960971      -0.01544565       0.00024895
O        2.13275218      -1.29788780      -0.39559829       0.00330107      -0.00015404      -0.00165310
N        1.55728734       0.68996668       0.53801847      -0.00261426      -0.00010497       0.00054414
C        2.82501221       1.33670306       0.32674882      -0.00392218       0.00290555       0.00225951
H       -3.58096123       1.48841727      -0.44024119       0.14021297      -0.36198819       0.39691687
H       -2.34339690       2.40418506      -1.29248571       0.52523142      -0.07042788       0.09924215
H       -2.79553556       0.78267336      -1.86594999       0.31407619      -0.29226935       0.11762065
H       -1.38900709      -0.80016917      -1.20894396      -0.10864441       0.15366198      -0.04836676
H       -0.32834715      -0.77269650       1.49111676       0.08004896      -0.15881307       0.07326232
H       -1.23846102      -2.87046957       0.53240800       0.05506527      -0.18104216      -0.04292459
H        0.48587266      -3.05349898       0.91744930      -0.07514250      -0.15470347      -0.04769808
H       -0.00292823      -2.82970667      -0.75048590      -0.04354422      -0.14067581       0.04306115
H        0.77503353       1.20680821       0.91902333       0.03862220       0.05764971       0.00465601
H        3.52207732       0.59476453      -0.05676650       0.00354623       0.01015886       0.00137762
H        3.21502948       1.74136543       1.26161313       0.01965716      -0.00406601      -0.00408051
H        2.74027705       2.14842558      -0.39891735       0.01546759      -0.00424900      -0.00848128
22
Mode 42, Freq: 1401.1376 cm⁻¹, Force Const: 7.219405e+00 eV/Å²
C       -2.63922453       1.40241468      -0.98355371      -0.02461558       0.02069440      -0.01436358
C       -1.59257531       0.86014408      -0.04761668       0.01912668      -0.02327425       0.00808982
O       -1.22461414       1.48694646       0.93502694      -0.00200802       0.00313752       0.00009418
N       -1.09454215      -0.35613394      -0.35776803      -0.00614082       0.00091335      -0.01071412
C       -0.11074745      -1.04680049       0.45681641      -0.00031283       0.05551185       0.00314829
C       -0.23081213      -2.54309654       0.27696225      -0.02472251      -0.14991111      -0.00466802
C        1.31747937      -0.57210827       0.14318791      -0.00759952      -0.00081113       0.00739112
O        2.13275218      -1.29788780      -0.39559829       0.00824850      -0.00361551      -0.00491543
N        1.55728734       0.68996668       0.53801847      -0.00293296      -0.00151878       0.00002954
C        2.82501221       1.33670306       0.32674882      -0.00142125       0.00035294       0.00016268
H       -3.58096123       1.48841727      -0.44024119       0.02044529      -0.10741466       0.07706144
H       -2.34339690       2.40418506      -1.29248571       0.12782358      -0.02451285      -0.00350175
H       -2.79553556       0.78267336      -1.86594999       0.05651027      -0.05468149       0.02279393
H       -1.38900709      -0.80016917      -1.20894396      -0.04147936       0.05641297      -0.02662623
H       -0.32834715      -0.77269650       1.49111676       0.07607916      -0.14892001       0.07509208
H       -1.23846102      -2.87046957       0.53240800      -0.20057784       0.51634121       0.10584299
H        0.48587266      -3.05349898       0.91744930       0.26889864       0.43850464       0.12441309
H       -0.00292823      -2.82970667      -0.75048590       0.16167867       0.49709645      -0.13589433
H        0.77503353       1.20680821       0.91902333      -0.00585867      -0.00033811      -0.00416630
H        3.52207732       0.59476453      -0.05676650       0.00854458       0.00928675       0.00081780
H        3.21502948       1.74136543       1.26161313       0.01278394      -0.00309071      -0.00390434
H        2.74027705       2.14842558      -0.39891735       0.01339519      -0.00165449      -0.00407815
22
Mode 43, Freq: 1426.4659 cm⁻¹, Force Const: 7.482775e+00 eV/Å²
C       -2.63922453       1.40241468      -0.98355371      -0.00135822       0.00191895      -0.00089699
C       -1.59257531       0.86014408      -0.04761668       0.00369243      -0.00292372       0.00324488
O       -1.22461414       1.48694646       0.93502694      -0.00019263      -0.00096784      -0.00191938
N       -1.09454215      -0.35613394      -0.35776803      -0.00251673       0.00322521      -0.00125814
C       -0.11074745      -1.04680049       0.45681641       0.00453296       0.00501472      -0.00017143
C       -0.23081213      -2.54309654       0.27696225      -0.00156549      -0.00143783      -0.00021418
C        1.31747937      -0.57210827       0.14318791      -0.02836300      -0.00166924       0.01030101
O        2.13275218      -1.29788780      -0.39559829       0.01425888      -0.01169815      -0.00946008
N        1.55728734       0.68996668       0.53801847       0.00529756      -0.00148549       0.00049505
C        2.82501221       1.33670306       0.32674882       0.11061983       0.03981449      -0.01839099
H       -3.58096123       1.48841727      -0.44024119      -0.00190426      -0.01180975      -0.00001632
H       -2.34339690       2.40418506      -1.29248571       0.01025330      -0.00176524      -0.00064697
H       -2.79553556       0.78267336      -1.86594999      -0.00392929      -0.00297286       0.00264165
H       -1.38900709      -0.80016917      -1.20894396       0.00464889      -0.00436034       0.00029162
H       -0.32834715      -0.77269650       1.49111676       0.01484183      -0.00145562       0.00374249
H       -1.23846102      -2.87046957       0.53240800      -0.00196970       0.00674066       0.00648451
H        0.48587266      -3.05349898       0.91744930       0.00846057      -0.00306096      -0.01230460
H       -0.00292823      -2.82970667      -0.75048590       0.01882827      -0.00377371       0.00466227
H        0.77503353       1.20680821       0.91902333       0.05526798       0.06665949       0.00323049
H        3.52207732       0.59476453      -0.05676650      -0.47357887      -0.49751285      -0.04279170
H        3.21502948       1.74136543       1.26161313      -0.49691856       0.07599825       0.20813218
H        2.74027705       2.14842558      -0.39891735      -0.43921992       0.06899899       0.09080903
22
Mode 44, Freq: 1451.2998 cm⁻¹, Force Const: 7.745584e+00 eV/Å²
C       -2.63922453       1.40241468      -0.98355371       0.03560239       0.03103426      -0.02053545
C       -1.59257531       0.86014408      -0.04761668       0.01670193       0.01036883      -0.01948601
O       -1.22461414       1.48694646       0.93502694      -0.00161999       0.00033130       0.00831685
N       -1.09454215      -0.35613394      -0.35776803      -0.00461595       0.00480636       0.00134596
C       -0.11074745      -1.04680049       0.45681641       0.00088037      -0.00507628      -0.00162017
C       -0.23081213      -2.54309654       0.27696225      -0.00017690       0.00132582       0.00002647
C        1.31747937      -0.57210827       0.14318791       0.00049736       0.00059109       0.00002085
O        2.13275218      -1.29788780      -0.39559829      -0.00020113       0.00016277       0.00013854
N        1.55728734       0.68996668       0.53801847       0.00047099      -0.00003842      -0.00015665
C        2.82501221       1.33670306       0.32674882      -0.00106337      -0.00035051       0.00027529
H       -3.58096123       1.48841727      -0.44024119      -0.22567090      -0.26503152      -0.40107030
H       -2.34339690       2.40418506      -1.29248571       0.20149556       0.09538406       0.39732876
H       -2.79553556       0.78267336      -1.86594999      -0.53158081      -0.33324423       0.33296180
H       -1.38900709      -0.80016917      -1.20894396       0.00742268      -0.03440281       0.01764506
H       -0.32834715      -0.77269650       1.49111676      -0.01128262       0.01215349      -0.00910467
H       -1.23846102      -2.87046957       0.53240800       0.00150222       0.00450871       0.01018356
H        0.48587266      -3.05349898       0.91744930      -0.00169348      -0.00823490      -0.00562504
H       -0.00292823      -2.82970667      -0.75048590       0.01171982       0.00194055       0.00242037
H        0.77503353       1.20680821       0.91902333      -0.00074066      -0.00056039      -0.00050748
H        3.52207732       0.59476453      -0.05676650       0.00323976       0.00388853      -0.00007159
H        3.21502948       1.74136543       1.26161313       0.00364290      -0.00091091      -0.00142446
H        2.74027705       2.14842558      -0.39891735       0.00356870      -0.00110890      -0.00112375
22
Mode 45, Freq: 1463.9623 cm⁻¹, Force Const: 7.881334e+00 eV/Å²
C       -2.63922453       1.40241468      -0.98355371      -0.00050172      -0.00207011      -0.00271595
C       -1.59257531       0.86014408      -0.04761668      -0.00031763       0.00308254       0.00233838
O       -1.22461414       1.48694646       0.93502694      -0.00071196      -0.00130295      -0.00211369
N       -1.09454215      -0.35613394      -0.35776803       0.00843539      -0.00648096       0.00470639
C       -0.11074745      -1.04680049       0.45681641      -0.02132663       0.00904018      -0.02755849
C       -0.23081213      -2.54309654       0.27696225      -0.01316463       0.00631014      -0.04254061
C        1.31747937      -0.57210827       0.14318791       0.00166225       0.00171927       0.00231301
O        2.13275218      -1.29788780      -0.39559829       0.00062273      -0.00024790       0.00017276
N        1.55728734       0.68996668       0.53801847       0.00206446       0.00160242       0.00021069
C        2.82501221       1.33670306       0.32674882      -0.00115013      -0.00193524      -0.00109453
H       -3.58096123       1.48841727      -0.44024119       0.00670452       0.04240711       0.00416992
H       -2.34339690       2.40418506      -1.29248571      -0.02905570       0.01596773       0.02578093
H       -2.79553556       0.78267336      -1.86594999       0.01931409      -0.01691993       0.00594276
H       -1.38900709      -0.80016917      -1.20894396       0.00632857       0.01227467      -0.00380782
H       -0.32834715      -0.77269650       1.49111676       0.04278031      -0.06873256       0.00229646
H       -1.23846102      -2.87046957       0.53240800       0.19193488      -0.06751597       0.66979724
H        0.48587266      -3.05349898       0.91744930      -0.35708827      -0.32161897       0.10064220
H       -0.00292823      -2.82970667      -0.75048590       0.39646930       0.30995157      -0.02066594
H        0.77503353       1.20680821       0.91902333      -0.01210116      -0.01702428      -0.00292946
H        3.52207732       0.59476453      -0.05676650       0.00246631      -0.00047150       0.00277053
H        3.21502948       1.74136543       1.26161313      -0.00104517       0.00512290      -0.00382890
H        2.74027705       2.14842558      -0.39891735       0.00345209       0.00656537       0.00756824
22
Mode 46, Freq: 1472.0267 cm⁻¹, Force Const: 7.968403e+00 eV/Å²
C       -2.63922453       1.40241468      -0.98355371      -0.01059396      -0.01634635      -0.04949996
C       -1.59257531       0.86014408      -0.04761668       0.02308336      -0.00427109       0.01562042
O       -1.22461414       1.48694646       0.93502694      -0.00926645      -0.01038957      -0.01901649
N       -1.09454215      -0.35613394      -0.35776803       0.01534153      -0.02446453       0.00236868
C       -0.11074745      -1.04680049       0.45681641       0.00136746       0.02675380       0.00654269
C       -0.23081213      -2.54309654       0.27696225       0.00465109      -0.00868086      -0.00047983
C        1.31747937      -0.57210827       0.14318791       0.00159055      -0.00106902      -0.00035398
O        2.13275218      -1.29788780      -0.39559829      -0.00046593       0.00019341       0.00001845
N        1.55728734       0.68996668       0.53801847      -0.00513762      -0.00452946      -0.00000987
C        2.82501221       1.33670306       0.32674882       0.00304950       0.00447349       0.00030488
H       -3.58096123       1.48841727      -0.44024119       0.06750414       0.53900874       0.01805459
H       -2.34339690       2.40418506      -1.29248571      -0.34546617       0.24431667       0.45455039
H       -2.79553556       0.78267336      -1.86594999       0.24938798      -0.36867413       0.17343043
H       -1.38900709      -0.80016917      -1.20894396      -0.14265864       0.18347670      -0.05128272
H       -0.32834715      -0.77269650       1.49111676       0.02276185      -0.04887763       0.03242367
H       -1.23846102      -2.87046957       0.53240800      -0.00073694      -0.04320706      -0.05607549
H        0.48587266      -3.05349898       0.91744930      -0.01419637       0.05060600       0.06539609
H       -0.00292823      -2.82970667      -0.75048590      -0.09690557       0.01549656      -0.02839074
H        0.77503353       1.20680821       0.91902333       0.01140281       0.01802599      -0.00218822
H        3.52207732       0.59476453      -0.05676650      -0.00183956      -0.00042072      -0.00006706
H        3.21502948       1.74136543       1.26161313      -0.00178545      -0.02106639       0.01253633
H        2.74027705       2.14842558      -0.39891735      -0.01061138      -0.01420177      -0.01758742
22
Mode 47, Freq: 1487.4270 cm⁻¹, Force Const: 8.136004e+00 eV/Å²
C       -2.63922453       1.40241468      -0.98355371      -0.00398020      -0.00058367      -0.00729138
C       -1.59257531       0.86014408      -0.04761668       0.01073024      -0.01054684       0.00425880
O       -1.22461414       1.48694646       0.93502694      -0.00271055      -0.00022411      -0.00335192
N       -1.09454215      -0.35613394      -0.35776803       0.00033619       0.00491303       0.00002752
C       -0.11074745      -1.04680049       0.45681641      -0.02729745      -0.00556583       0.00465152
C       -0.23081213      -2.54309654       0.27696225      -0.03738452       0.01452073       0.01366118
C        1.31747937      -0.57210827       0.14318791      -0.00154263      -0.00314427       0.00241030
O        2.13275218      -1.29788780      -0.39559829       0.00010066       0.00234470       0.00016145
N        1.55728734       0.68996668       0.53801847       0.01323702       0.00599586       0.00131644
C        2.82501221       1.33670306       0.32674882      -0.00933440      -0.03585556       0.00492616
H       -3.58096123       1.48841727      -0.44024119       0.00879251       0.07479981       0.00506774
H       -2.34339690       2.40418506      -1.29248571      -0.04958643       0.03248103       0.05317516
H       -2.79553556       0.78267336      -1.86594999       0.04191013      -0.04827851       0.02028872
H       -1.38900709      -0.80016917      -1.20894396      -0.00948240       0.01611652      -0.00170154
H       -0.32834715      -0.77269650       1.49111676       0.06084513       0.03441282       0.01653498
H       -1.23846102      -2.87046957       0.53240800      -0.10037107       0.27281168       0.04149235
H        0.48587266      -3.05349898       0.91744930       0.27772775      -0.15686017      -0.46422952
H       -0.00292823      -2.82970667      -0.75048590       0.44134101      -0.28190595       0.19272168
H        0.77503353       1.20680821       0.91902333      -0.06385210      -0.09467749      -0.01231484
H        3.52207732       0.59476453      -0.05676650      -0.07601786      -0.01626243      -0.14300293
H        3.21502948       1.74136543       1.26161313      -0.07330549       0.31677997      -0.11627480
H        2.74027705       2.14842558      -0.39891735       0.21471889       0.15596932       0.17071442
22
Mode 48, Freq: 1488.7710 cm⁻¹, Force Const: 8.150715e+00 eV/Å²
C       -2.63922453       1.40241468      -0.98355371      -0.00161171      -0.00034780      -0.00245416
C       -1.59257531       0.86014408      -0.04761668       0.00439744      -0.00472986       0.00218932
O       -1.22461414       1.48694646       0.93502694      -0.00072444      -0.00051059      -0.00163741
N       -1.09454215      -0.35613394      -0.35776803      -0.00002769       0.00462879      -0.00058214
C       -0.11074745      -1.04680049       0.45681641      -0.02380907      -0.01035699       0.00214544
C       -0.23081213      -2.54309654       0.27696225      -0.01990689       0.00898904       0.00692685
C        1.31747937      -0.57210827       0.14318791       0.00843673       0.01786688       0.00552548
O        2.13275218      -1.29788780      -0.39559829       0.00358908      -0.00560975      -0.00420212
N        1.55728734       0.68996668       0.53801847      -0.01322614      -0.00216055      -0.00696463
C        2.82501221       1.33670306       0.32674882       0.00703955       0.04781276      -0.02370964
H       -3.58096123       1.48841727      -0.44024119       0.00342772       0.02724146       0.00266174
H       -2.34339690       2.40418506      -1.29248571      -0.01818726       0.01107099       0.01728665
H       -2.79553556       0.78267336      -1.86594999       0.01585403      -0.01548221       0.00594634
H       -1.38900709      -0.80016917      -1.20894396       0.00850513      -0.00716299       0.00284741
H       -0.32834715      -0.77269650       1.49111676       0.06027810       0.03479886       0.01045610
H       -1.23846102      -2.87046957       0.53240800      -0.05601568       0.16278078       0.03344920
H        0.48587266      -3.05349898       0.91744930       0.15129459      -0.09251516      -0.25937068
H       -0.00292823      -2.82970667      -0.75048590       0.25238046      -0.15446132       0.10758934
H        0.77503353       1.20680821       0.91902333       0.04033949       0.06350927       0.01173018
H        3.52207732       0.59476453      -0.05676650       0.17450349      -0.03096267       0.41938511
H        3.21502948       1.74136543       1.26161313       0.24382520      -0.48835531       0.11161958
H        2.74027705       2.14842558      -0.39891735      -0.43419811      -0.15343069      -0.15431759
22
Mode 49, Freq: 1492.7671 cm⁻¹, Force Const: 8.194529e+00 eV/Å²
C       -2.63922453       1.40241468      -0.98355371      -0.00016417      -0.00017153       0.00011043
C       -1.59257531       0.86014408      -0.04761668       0.00052092      -0.00093204       0.00034242
O       -1.22461414       1.48694646       0.93502694       0.00022052      -0.00027633      -0.00032140
N       -1.09454215      -0.35613394      -0.35776803       0.00033648       0.00224169      -0.00015014
C       -0.11074745      -1.04680049       0.45681641      -0.01361080      -0.00735703      -0.00014199
C       -0.23081213      -2.54309654       0.27696225      -0.00565150       0.00345180       0.00198168
C        1.31747937      -0.57210827       0.14318791       0.01137954       0.01889140       0.00496696
O        2.13275218      -1.29788780      -0.39559829       0.00262520      -0.00636406      -0.00262426
N        1.55728734       0.68996668       0.53801847      -0.01326318      -0.00908597       0.01129534
C        2.82501221       1.33670306       0.32674882       0.01663920       0.03003540       0.04257764
H       -3.58096123       1.48841727      -0.44024119       0.00052885       0.00219213       0.00092760
H       -2.34339690       2.40418506      -1.29248571      -0.00172820       0.00010543      -0.00093925
H       -2.79553556       0.78267336      -1.86594999       0.00189009       0.00103106      -0.00100435
H       -1.38900709      -0.80016917      -1.20894396       0.01031257      -0.01015443       0.00286666
H       -0.32834715      -0.77269650       1.49111676       0.03235697       0.01763459       0.00393259
H       -1.23846102      -2.87046957       0.53240800      -0.01734758       0.05707043       0.01727432
H        0.48587266      -3.05349898       0.91744930       0.04445739      -0.03394055      -0.08211829
H       -0.00292823      -2.82970667      -0.75048590       0.08324996      -0.04576793       0.03388369
H        0.77503353       1.20680821       0.91902333       0.04834195       0.07936438       0.01504402
H        3.52207732       0.59476453      -0.05676650      -0.03974272       0.25023460      -0.50595659
H        3.21502948       1.74136543       1.26161313      -0.32448602      -0.24777895       0.27284735
H        2.74027705       2.14842558      -0.39891735       0.18803737      -0.39279994      -0.45871842
22
Mode 50, Freq: 1557.4050 cm⁻¹, Force Const: 8.919552e+00 eV/Å²
C       -2.63922453       1.40241468      -0.98355371       0.03066750      -0.01962301       0.02493047
C       -1.59257531       0.86014408      -0.04761668      -0.12878373       0.17933929      -0.03088419
O       -1.22461414       1.48694646       0.93502694       0.01522976      -0.01707915       0.00616514
N       -1.09454215      -0.35613394      -0.35776803       0.12951317      -0.19781822       0.01531134
C       -0.11074745      -1.04680049       0.45681641      -0.01370337       0.07276917       0.01183045
C       -0.23081213      -2.54309654       0.27696225      -0.01547845      -0.00116132      -0.00694427
C        1.31747937      -0.57210827       0.14318791      -0.00580835      -0.01283155      -0.00481299
O        2.13275218      -1.29788780      -0.39559829      -0.00083205       0.00120153       0.00056580
N        1.55728734       0.68996668       0.53801847       0.00029810       0.00992103       0.00342469
C        2.82501221       1.33670306       0.32674882       0.00380743      -0.00055062      -0.00132332
H       -3.58096123       1.48841727      -0.44024119       0.00301411      -0.15731797      -0.00477290
H       -2.34339690       2.40418506      -1.29248571       0.12694196      -0.07560741      -0.05826116
H       -2.79553556       0.78267336      -1.86594999      -0.13638884       0.12214581      -0.04455393
H       -1.38900709      -0.80016917      -1.20894396      -0.53740233       0.65303427      -0.20653380
H       -0.32834715      -0.77269650       1.49111676       0.05586038      -0.10387384       0.08177136
H       -1.23846102      -2.87046957       0.53240800      -0.00947172      -0.02124694      -0.01823023
H        0.48587266      -3.05349898       0.91744930       0.04020601       0.00997315      -0.05572343
H       -0.00292823      -2.82970667      -0.75048590       0.03801888      -0.09359881       0.03355357
H        0.77503353       1.20680821       0.91902333      -0.02953868      -0.03685008      -0.01186607
H        3.52207732       0.59476453      -0.05676650       0.00365994      -0.00108986      -0.00281043
H        3.21502948       1.74136543       1.26161313      -0.02058176      -0.01817553       0.01663414
H        2.74027705       2.14842558      -0.39891735      -0.02599117      -0.01131914      -0.01055514
22
Mode 51, Freq: 1599.5090 cm⁻¹, Force Const: 9.408346e+00 eV/Å²
C       -2.63922453       1.40241468      -0.98355371      -0.00323972       0.00279999      -0.00314587
C       -1.59257531       0.86014408      -0.04761668       0.01430310      -0.01491307       0.00529635
O       -1.22461414       1.48694646       0.93502694      -0.00392747       0.00307459      -0.00172669
N       -1.09454215      -0.35613394      -0.35776803      -0.00826587       0.00930072       0.00165052
C       -0.11074745      -1.04680049       0.45681641       0.03213134       0.01612384      -0.00300514
C       -0.23081213      -2.54309654       0.27696225      -0.00120312       0.00038150       0.00038292
C        1.31747937      -0.57210827       0.14318791      -0.11101734      -0.12114476      -0.01113863
O        2.13275218      -1.29788780      -0.39559829       0.01960274       0.00458909      -0.00407548
N        1.55728734       0.68996668       0.53801847       0.11696751       0.18311219       0.02623513
C        2.82501221       1.33670306       0.32674882      -0.00862673      -0.03941720      -0.00792797
H       -3.58096123       1.48841727      -0.44024119      -0.00171625       0.01216158      -0.00159722
H       -2.34339690       2.40418506      -1.29248571      -0.01120902       0.00764910       0.00529409
H       -2.79553556       0.78267336      -1.86594999       0.00990405      -0.01267585       0.00448022
H       -1.38900709      -0.80016917      -1.20894396       0.00314327      -0.00800106       0.00929145
H       -0.32834715      -0.77269650       1.49111676      -0.06575508      -0.01523600      -0.01457284
H       -1.23846102      -2.87046957       0.53240800       0.00940431      -0.03309246      -0.01308824
H        0.48587266      -3.05349898       0.91744930      -0.00215957       0.00721424       0.00671543
H       -0.00292823      -2.82970667      -0.75048590      -0.01227376      -0.00328687      -0.00076184
H        0.77503353       1.20680821       0.91902333      -0.54200345      -0.68767947      -0.06573217
H        3.52207732       0.59476453      -0.05676650       0.12222272       0.08750142      -0.02266860
H        3.21502948       1.74136543       1.26161313      -0.15595341      -0.16853419       0.10638346
H        2.74027705       2.14842558      -0.39891735      -0.18762164      -0.12052862      -0.07633480
22
Mode 52, Freq: 1746.6498 cm⁻¹, Force Const: 1.121893e+01 eV/Å²
C       -2.63922453       1.40241468      -0.98355371       0.02795974       0.01513140       0.05048234
C       -1.59257531       0.86014408      -0.04761668      -0.20524323      -0.35887596      -0.55936694
O       -1.22461414       1.48694646       0.93502694       0.12231298       0.20568259       0.32980666
N       -1.09454215      -0.35613394      -0.35776803       0.02287474       0.03869265       0.06315200
C       -0.11074745      -1.04680049       0.45681641      -0.00016565       0.00689894      -0.01934593
C       -0.23081213      -2.54309654       0.27696225       0.00536339       0.00106800       0.01199784
C        1.31747937      -0.57210827       0.14318791      -0.09198075       0.04756590       0.05320793
O        2.13275218      -1.29788780      -0.39559829       0.05229605      -0.03798570      -0.03212659
N        1.55728734       0.68996668       0.53801847       0.01920688      -0.00846294      -0.01018393
C        2.82501221       1.33670306       0.32674882      -0.00810749       0.00480158       0.00395893
H       -3.58096123       1.48841727      -0.44024119      -0.01611397       0.12239414      -0.05983326
H       -2.34339690       2.40418506      -1.29248571      -0.17483903       0.03498396      -0.03253086
H       -2.79553556       0.78267336      -1.86594999       0.20061664      -0.13091998       0.10657042
H       -1.38900709      -0.80016917      -1.20894396      -0.21615736       0.36094818      -0.03564654
H       -0.32834715      -0.77269650       1.49111676       0.05778969      -0.09019145       0.00297011
H       -1.23846102      -2.87046957       0.53240800       0.00332385      -0.01750685      -0.01110074
H        0.48587266      -3.05349898       0.91744930      -0.01489635      -0.04881128      -0.01257099
H       -0.00292823      -2.82970667      -0.75048590      -0.00910456       0.01398277       0.00696849
H        0.77503353       1.20680821       0.91902333       0.02104874       0.04763606       0.05277238
H        3.52207732       0.59476453      -0.05676650      -0.01153250       0.00152081       0.00585510
H        3.21502948       1.74136543       1.26161313       0.02441328       0.00086190      -0.00840498
H        2.74027705       2.14842558      -0.39891735       0.02242856       0.00037034      -0.00579058
22
Mode 53, Freq: 1784.2644 cm⁻¹, Force Const: 1.170734e+01 eV/Å²
C       -2.63922453       1.40241468      -0.98355371      -0.00528862      -0.00189673      -0.00870229
C       -1.59257531       0.86014408      -0.04761668       0.03368051       0.06445652       0.09162477
O       -1.22461414       1.48694646       0.93502694      -0.02449696      -0.03282542      -0.05416710
N       -1.09454215      -0.35613394      -0.35776803       0.00805060      -0.01549977      -0.00876220
C       -0.11074745      -1.04680049       0.45681641       0.03288705      -0.03156759      -0.02067854
C       -0.23081213      -2.54309654       0.27696225      -0.00888590       0.00974602      -0.00008109
C        1.31747937      -0.57210827       0.14318791      -0.44224370       0.46579704       0.31981957
O        2.13275218      -1.29788780      -0.39559829       0.28064755      -0.24567874      -0.18390122
N        1.55728734       0.68996668       0.53801847       0.03650894      -0.09067762      -0.04214048
C        2.82501221       1.33670306       0.32674882      -0.02935463       0.00339100       0.00769878
H       -3.58096123       1.48841727      -0.44024119       0.00151878      -0.01682616       0.00730505
H       -2.34339690       2.40418506      -1.29248571       0.02601508      -0.00418361       0.00632238
H       -2.79553556       0.78267336      -1.86594999      -0.03278473       0.02108777      -0.01680252
H       -1.38900709      -0.80016917      -1.20894396      -0.01200459      -0.00855497      -0.00288817
H       -0.32834715      -0.77269650       1.49111676       0.16473624       0.10643893      -0.00780786
H       -1.23846102      -2.87046957       0.53240800       0.02625585      -0.12288967      -0.03595641
H        0.48587266      -3.05349898       0.91744930      -0.04978346       0.00744097       0.02590131
H       -0.00292823      -2.82970667      -0.75048590      -0.06592640      -0.01864544       0.00553189
H        0.77503353       1.20680821       0.91902333      -0.15342169      -0.30738273      -0.08632446
H        3.52207732       0.59476453      -0.05676650       0.06021419       0.10370515       0.02584535
H        3.21502948       1.74136543       1.26161313       0.16313066       0.03795983      -0.09619445
H        2.74027705       2.14842558      -0.39891735       0.18234544       0.02158284       0.01771309
22
Mode 54, Freq: 3042.7046 cm⁻¹, Force Const: 3.404548e+01 eV/Å²
C       -2.63922453       1.40241468      -0.98355371       0.00014698       0.00000088       0.00007221
C       -1.59257531       0.86014408      -0.04761668       0.00020817      -0.00004507       0.00019163
O       -1.22461414       1.48694646       0.93502694      -0.00013326       0.00001588      -0.00004229
N       -1.09454215      -0.35613394      -0.35776803      -0.00011598       0.00004371      -0.00006680
C       -0.11074745      -1.04680049       0.45681641       0.00010072      -0.00004576       0.00019946
C       -0.23081213      -2.54309654       0.27696225      -0.00054443      -0.00167320      -0.00049624
C        1.31747937      -0.57210827       0.14318791       0.00009069       0.00231141       0.00091113
O        2.13275218      -1.29788780      -0.39559829       0.00035313      -0.00056908      -0.00035642
N        1.55728734       0.68996668       0.53801847      -0.00090610      -0.00120219      -0.00023992
C        2.82501221       1.33670306       0.32674882      -0.02987468      -0.04037880       0.00870345
H       -3.58096123       1.48841727      -0.44024119      -0.00229582       0.00016046       0.00137664
H       -2.34339690       2.40418506      -1.29248571       0.00053081       0.00168925      -0.00051059
H       -2.79553556       0.78267336      -1.86594999      -0.00045107      -0.00176699      -0.00246507
H       -1.38900709      -0.80016917      -1.20894396       0.00015291      -0.00014675       0.00049250
H       -0.32834715      -0.77269650       1.49111676       0.00024637      -0.00086898      -0.00326078
H       -1.23846102      -2.87046957       0.53240800       0.02065228       0.00585531      -0.00550578
H        0.48587266      -3.05349898       0.91744930      -0.01074288       0.00723029      -0.00957886
H       -0.00292823      -2.82970667      -0.75048590      -0.00490605       0.00545798       0.02100701
H        0.77503353       1.20680821       0.91902333      -0.00881064       0.00272643       0.00301315
H        3.52207732       0.59476453      -0.05676650       0.23736089      -0.25260329      -0.12649536
H        3.21502948       1.74136543       1.26161313       0.20378038       0.20188248       0.50511330
H        2.74027705       2.14842558      -0.39891735      -0.06885362       0.52986979      -0.48676708
22
Mode 55, Freq: 3061.4531 cm⁻¹, Force Const: 3.446634e+01 eV/Å²
C       -2.63922453       1.40241468      -0.98355371      -0.02829853       0.01067442      -0.02203720
C       -1.59257531       0.86014408      -0.04761668       0.00095263      -0.00070672       0.00070939
O       -1.22461414       1.48694646       0.93502694       0.00000539       0.00008906       0.00010134
N       -1.09454215      -0.35613394      -0.35776803       0.00023791      -0.00026030       0.00026188
C       -0.11074745      -1.04680049       0.45681641       0.00102995      -0.00178627      -0.00303102
C       -0.23081213      -2.54309654       0.27696225       0.00901561       0.03114777       0.00896708
C        1.31747937      -0.57210827       0.14318791      -0.00081318       0.00010345       0.00022205
O        2.13275218      -1.29788780      -0.39559829       0.00010844      -0.00020204      -0.00008927
N        1.55728734       0.68996668       0.53801847       0.00027980       0.00000500      -0.00009629
C        2.82501221       1.33670306       0.32674882      -0.00071700      -0.00129063       0.00028520
H       -3.58096123       1.48841727      -0.44024119       0.37622878      -0.03196518      -0.22619669
H       -2.34339690       2.40418506      -1.29248571      -0.11226514      -0.35372382       0.10551605
H       -2.79553556       0.78267336      -1.86594999       0.05924384       0.26763731       0.37104875
H       -1.38900709      -0.80016917      -1.20894396      -0.00146936       0.00167814      -0.00182461
H       -0.32834715      -0.77269650       1.49111676      -0.00828120       0.01091387       0.03668384
H       -1.23846102      -2.87046957       0.53240800      -0.39252576      -0.12152381       0.10302994
H        0.48587266      -3.05349898       0.91744930       0.19842759      -0.13542596       0.17910837
H       -0.00292823      -2.82970667      -0.75048590       0.08899429      -0.10299435      -0.38985789
H        0.77503353       1.20680821       0.91902333      -0.00167740       0.00071088       0.00070529
H        3.52207732       0.59476453      -0.05676650       0.00497377      -0.00509026      -0.00256200
H        3.21502948       1.74136543       1.26161313       0.00551430       0.00532838       0.01321364
H        2.74027705       2.14842558      -0.39891735      -0.00178586       0.01530799      -0.01399818
22
Mode 56, Freq: 3062.2476 cm⁻¹, Force Const: 3.448423e+01 eV/Å²
C       -2.63922453       1.40241468      -0.98355371       0.02514274      -0.00965934       0.01950412
C       -1.59257531       0.86014408      -0.04761668      -0.00080909       0.00074007      -0.00069721
O       -1.22461414       1.48694646       0.93502694      -0.00006245      -0.00006898      -0.00009522
N       -1.09454215      -0.35613394      -0.35776803      -0.00003719      -0.00018879       0.00008008
C       -0.11074745      -1.04680049       0.45681641       0.00039652      -0.00120531      -0.00080693
C       -0.23081213      -2.54309654       0.27696225       0.01042351       0.03494729       0.00961792
C        1.31747937      -0.57210827       0.14318791      -0.00085662       0.00026087       0.00033910
O        2.13275218      -1.29788780      -0.39559829       0.00015911      -0.00027412      -0.00013920
N        1.55728734       0.68996668       0.53801847       0.00015364       0.00002500      -0.00003055
C        2.82501221       1.33670306       0.32674882      -0.00058588      -0.00115160       0.00021059
H       -3.58096123       1.48841727      -0.44024119      -0.33590674       0.02854295       0.20193505
H       -2.34339690       2.40418506      -1.29248571       0.10051032       0.31673899      -0.09462404
H       -2.79553556       0.78267336      -1.86594999      -0.05276981      -0.23761773      -0.32983941
H       -1.38900709      -0.80016917      -1.20894396      -0.00023302       0.00221442       0.00005550
H       -0.32834715      -0.77269650       1.49111676      -0.00242852       0.00413969       0.00832849
H       -1.23846102      -2.87046957       0.53240800      -0.44389164      -0.13728407       0.11637647
H        0.48587266      -3.05349898       0.91744930       0.22382626      -0.15259500       0.20187123
H       -0.00292823      -2.82970667      -0.75048590       0.09904590      -0.11482682      -0.43405595
H        0.77503353       1.20680821       0.91902333      -0.00039817      -0.00081088       0.00000551
H        3.52207732       0.59476453      -0.05676650       0.00407274      -0.00414824      -0.00205346
H        3.21502948       1.74136543       1.26161313       0.00485117       0.00471172       0.01167107
H        2.74027705       2.14842558      -0.39891735      -0.00152254       0.01349006      -0.01227381
22
Mode 57, Freq: 3092.0417 cm⁻¹, Force Const: 3.515852e+01 eV/Å²
C       -2.63922453       1.40241468      -0.98355371      -0.00086018       0.00067240      -0.00052359
C       -1.59257531       0.86014408      -0.04761668       0.00040654       0.00118931       0.00106363
O       -1.22461414       1.48694646       0.93502694      -0.00043362      -0.00009461      -0.00062479
N       -1.09454215      -0.35613394      -0.35776803       0.00049859      -0.00118508      -0.00029778
C       -0.11074745      -1.04680049       0.45681641      -0.01724270       0.02081920       0.07775387
C       -0.23081213      -2.54309654       0.27696225       0.00567575       0.00223440      -0.01419095
C        1.31747937      -0.57210827       0.14318791      -0.00052696       0.00095078       0.00092616
O        2.13275218      -1.29788780      -0.39559829       0.00038192      -0.00035995      -0.00009860
N        1.55728734       0.68996668       0.53801847       0.00044044      -0.00016913      -0.00042537
C        2.82501221       1.33670306       0.32674882      -0.00024064       0.00064412      -0.00016635
H       -3.58096123       1.48841727      -0.44024119       0.01254791      -0.00097654      -0.00782310
H       -2.34339690       2.40418506      -1.29248571      -0.00483327      -0.01486745       0.00427928
H       -2.79553556       0.78267336      -1.86594999       0.00145370       0.00689654       0.00933908
H       -1.38900709      -0.80016917      -1.20894396      -0.00090298       0.00407944       0.00841587
H       -0.32834715      -0.77269650       1.49111676       0.20147865      -0.24061428      -0.93097359
H       -1.23846102      -2.87046957       0.53240800      -0.09858104      -0.02798732       0.02142666
H        0.48587266      -3.05349898       0.91744930       0.05214407      -0.03166267       0.03973723
H       -0.00292823      -2.82970667      -0.75048590      -0.02197359       0.02237778       0.09859186
H        0.77503353       1.20680821       0.91902333      -0.00544823       0.00026210       0.00378044
H        3.52207732       0.59476453      -0.05676650       0.00359304      -0.00324895      -0.00185675
H        3.21502948       1.74136543       1.26161313       0.00004381       0.00007643       0.00012580
H        2.74027705       2.14842558      -0.39891735       0.00063073      -0.00418894       0.00360406
22
Mode 58, Freq: 3109.7861 cm⁻¹, Force Const: 3.556321e+01 eV/Å²
C       -2.63922453       1.40241468      -0.98355371       0.00009276       0.00005693      -0.00007794
C       -1.59257531       0.86014408      -0.04761668       0.00000667       0.00003259       0.00005558
O       -1.22461414       1.48694646       0.93502694      -0.00000635      -0.00001720      -0.00004607
N       -1.09454215      -0.35613394      -0.35776803      -0.00001201       0.00000303      -0.00003049
C       -0.11074745      -1.04680049       0.45681641      -0.00005089       0.00008056       0.00038273
C       -0.23081213      -2.54309654       0.27696225      -0.00000235      -0.00003871      -0.00034165
C        1.31747937      -0.57210827       0.14318791       0.00016593      -0.00038812       0.00044682
O        2.13275218      -1.29788780      -0.39559829      -0.00008007       0.00006824      -0.00007034
N        1.55728734       0.68996668       0.53801847      -0.00012334       0.00005462      -0.00060090
C        2.82501221       1.33670306       0.32674882       0.03195248      -0.02227998       0.08478832
H       -3.58096123       1.48841727      -0.44024119      -0.00095944       0.00009075       0.00057286
H       -2.34339690       2.40418506      -1.29248571      -0.00023388      -0.00075979       0.00024218
H       -2.79553556       0.78267336      -1.86594999       0.00002048       0.00006611       0.00012129
H       -1.38900709      -0.80016917      -1.20894396      -0.00004842      -0.00005732       0.00009616
H       -0.32834715      -0.77269650       1.49111676       0.00076048      -0.00098995      -0.00365179
H       -1.23846102      -2.87046957       0.53240800       0.00010887       0.00012493      -0.00005558
H        0.48587266      -3.05349898       0.91744930       0.00085093      -0.00056578       0.00068677
H       -0.00292823      -2.82970667      -0.75048590      -0.00076919       0.00095152       0.00345688
H        0.77503353       1.20680821       0.91902333      -0.00071696       0.00160980      -0.00120508
H        3.52207732       0.59476453      -0.05676650      -0.06303062       0.06747896       0.05772121
H        3.21502948       1.74136543       1.26161313      -0.25557750      -0.28800374      -0.64365780
H        2.74027705       2.14842558      -0.39891735      -0.06041591       0.48698351      -0.41956371
22
Mode 59, Freq: 3141.9600 cm⁻¹, Force Const: 3.630289e+01 eV/Å²
C       -2.63922453       1.40241468      -0.98355371      -0.00179490       0.00013131       0.00226258
C       -1.59257531       0.86014408      -0.04761668      -0.00009416      -0.00016422      -0.00006702
O       -1.22461414       1.48694646       0.93502694       0.00004374      -0.00000664       0.00006227
N       -1.09454215      -0.35613394      -0.35776803      -0.00025193       0.00009310       0.00017517
C       -0.11074745      -1.04680049       0.45681641       0.00360119      -0.00353550      -0.01346002
C       -0.23081213      -2.54309654       0.27696225       0.05140865       0.00484299      -0.07553718
C        1.31747937      -0.57210827       0.14318791       0.00002313      -0.00085797      -0.00011502
O        2.13275218      -1.29788780      -0.39559829      -0.00007606       0.00033323       0.00013893
N        1.55728734       0.68996668       0.53801847       0.00004094       0.00010067       0.00002894
C        2.82501221       1.33670306       0.32674882      -0.00005743       0.00001756      -0.00019623
H       -3.58096123       1.48841727      -0.44024119       0.02175192      -0.00204085      -0.01234022
H       -2.34339690       2.40418506      -1.29248571       0.00257993       0.00996832      -0.00260089
H       -2.79553556       0.78267336      -1.86594999      -0.00243725      -0.00894986      -0.01222365
H       -1.38900709      -0.80016917      -1.20894396       0.00236968      -0.00202047      -0.00069144
H       -0.32834715      -0.77269650       1.49111676      -0.03296819       0.04114742       0.14847298
H       -1.23846102      -2.87046957       0.53240800      -0.57459980      -0.18583371       0.13453773
H        0.48587266      -3.05349898       0.91744930       0.10512709      -0.06591247       0.06723643
H       -0.00292823      -2.82970667      -0.75048590      -0.15102616       0.19989428       0.70718473
H        0.77503353       1.20680821       0.91902333      -0.00013064       0.00075743      -0.00016697
H        3.52207732       0.59476453      -0.05676650      -0.00054889       0.00019143       0.00012665
H        3.21502948       1.74136543       1.26161313       0.00064163       0.00077049       0.00149381
H        2.74027705       2.14842558      -0.39891735       0.00012490      -0.00102168       0.00095053
22
Mode 60, Freq: 3144.7168 cm⁻¹, Force Const: 3.636662e+01 eV/Å²
C       -2.63922453       1.40241468      -0.98355371       0.05787411      -0.00081371      -0.07179336
C       -1.59257531       0.86014408      -0.04761668       0.00121517      -0.00116018      -0.00064173
O       -1.22461414       1.48694646       0.93502694      -0.00015551       0.00023783       0.00023231
N       -1.09454215      -0.35613394      -0.35776803       0.00014498       0.00036907       0.00014852
C       -0.11074745      -1.04680049       0.45681641       0.00012687       0.00002067      -0.00025340
C       -0.23081213      -2.54309654       0.27696225       0.00137461       0.00019379      -0.00253930
C        1.31747937      -0.57210827       0.14318791      -0.00003771      -0.00005142      -0.00000147
O        2.13275218      -1.29788780      -0.39559829       0.00000435       0.00001447       0.00000664
N        1.55728734       0.68996668       0.53801847       0.00019663      -0.00009740      -0.00006902
C        2.82501221       1.33670306       0.32674882      -0.00011360       0.00015143      -0.00005197
H       -3.58096123       1.48841727      -0.44024119      -0.69361919       0.06428659       0.39658645
H       -2.34339690       2.40418506      -1.29248571      -0.08466038      -0.33060506       0.08611449
H       -2.79553556       0.78267336      -1.86594999       0.07570352       0.27838638       0.37529132
H       -1.38900709      -0.80016917      -1.20894396      -0.00204052       0.00158772      -0.00202052
H       -0.32834715      -0.77269650       1.49111676      -0.00078141       0.00102534       0.00426527
H       -1.23846102      -2.87046957       0.53240800      -0.01669376      -0.00543118       0.00381029
H        0.48587266      -3.05349898       0.91744930       0.00490584      -0.00321864       0.00349175
H       -0.00292823      -2.82970667      -0.75048590      -0.00493066       0.00644751       0.02304113
H        0.77503353       1.20680821       0.91902333      -0.00161805       0.00131029       0.00088738
H        3.52207732       0.59476453      -0.05676650       0.00093556      -0.00105656      -0.00057285
H        3.21502948       1.74136543       1.26161313       0.00015042       0.00021218       0.00038751
H        2.74027705       2.14842558      -0.39891735       0.00012379      -0.00095083       0.00084725
22
Mode 61, Freq: 3155.6528 cm⁻¹, Force Const: 3.662000e+01 eV/Å²
C       -2.63922453       1.40241468      -0.98355371      -0.02631538      -0.08667211      -0.02215613
C       -1.59257531       0.86014408      -0.04761668       0.00042628      -0.00249848      -0.00067117
O       -1.22461414       1.48694646       0.93502694       0.00003212       0.00061937       0.00035489
N       -1.09454215      -0.35613394      -0.35776803      -0.00013701       0.00038386       0.00041874
C       -0.11074745      -1.04680049       0.45681641      -0.00006107       0.00030254       0.00049981
C       -0.23081213      -2.54309654       0.27696225      -0.00025773      -0.00000383      -0.00035385
C        1.31747937      -0.57210827       0.14318791      -0.00006541      -0.00007339       0.00000179
O        2.13275218      -1.29788780      -0.39559829       0.00001994       0.00001792       0.00000147
N        1.55728734       0.68996668       0.53801847       0.00024483      -0.00010527      -0.00011127
C        2.82501221       1.33670306       0.32674882      -0.00049492       0.00078785       0.00048121
H       -3.58096123       1.48841727      -0.44024119       0.01910380      -0.02050850      -0.01744958
H       -2.34339690       2.40418506      -1.29248571       0.21315207       0.71349090      -0.22643767
H       -2.79553556       0.78267336      -1.86594999       0.07991859       0.35063559       0.50487405
H       -1.38900709      -0.80016917      -1.20894396      -0.00316567       0.00237247      -0.00213834
H       -0.32834715      -0.77269650       1.49111676       0.00100830      -0.00130695      -0.00406039
H       -1.23846102      -2.87046957       0.53240800       0.00162692       0.00057072      -0.00051905
H        0.48587266      -3.05349898       0.91744930       0.00211877      -0.00155804       0.00183429
H       -0.00292823      -2.82970667      -0.75048590      -0.00062522       0.00062508       0.00258783
H        0.77503353       1.20680821       0.91902333      -0.00222231       0.00164884       0.00154406
H        3.52207732       0.59476453      -0.05676650       0.00683325      -0.00718922      -0.00369291
H        3.21502948       1.74136543       1.26161313      -0.00125889      -0.00122560      -0.00313304
H        2.74027705       2.14842558      -0.39891735       0.00014634      -0.00108646       0.00116990
22
Mode 62, Freq: 3159.0374 cm⁻¹, Force Const: 3.669859e+01 eV/Å²
C       -2.63922453       1.40241468      -0.98355371       0.00017125       0.00020774      -0.00008405
C       -1.59257531       0.86014408      -0.04761668      -0.00011780       0.00040866       0.00022130
O       -1.22461414       1.48694646       0.93502694      -0.00007173      -0.00010360      -0.00013584
N       -1.09454215      -0.35613394      -0.35776803      -0.00025362      -0.00000926      -0.00036362
C       -0.11074745      -1.04680049       0.45681641       0.00073504       0.00052564       0.00314509
C       -0.23081213      -2.54309654       0.27696225       0.06416930      -0.01641415       0.04057944
C        1.31747937      -0.57210827       0.14318791      -0.00026105      -0.00018228      -0.00005675
O        2.13275218      -1.29788780      -0.39559829       0.00021880       0.00022927      -0.00006692
N        1.55728734       0.68996668       0.53801847       0.00051626      -0.00017645      -0.00022420
C        2.82501221       1.33670306       0.32674882      -0.02263185       0.03850380       0.01985415
H       -3.58096123       1.48841727      -0.44024119      -0.00086302       0.00012915       0.00061555
H       -2.34339690       2.40418506      -1.29248571      -0.00072993      -0.00269408       0.00087917
H       -2.79553556       0.78267336      -1.86594999      -0.00013938      -0.00022887      -0.00058640
H       -1.38900709      -0.80016917      -1.20894396      -0.00021085       0.00241489       0.00007370
H       -0.32834715      -0.77269650       1.49111676       0.00388649      -0.00791597      -0.02773696
H       -1.23846102      -2.87046957       0.53240800      -0.33310807      -0.11287803       0.09540832
H        0.48587266      -3.05349898       0.91744930      -0.48602211       0.34978169      -0.43748978
H       -0.00292823      -2.82970667      -0.75048590       0.04682613      -0.04459921      -0.14417125
H        0.77503353       1.20680821       0.91902333      -0.00659822       0.00644217       0.00398545
H        3.52207732       0.59476453      -0.05676650       0.31982505      -0.33429474      -0.17303382
H        3.21502948       1.74136543       1.26161313      -0.05925924      -0.05480107      -0.14318284
H        2.74027705       2.14842558      -0.39891735       0.00917757      -0.07541931       0.07808258
22
Mode 63, Freq: 3159.1445 cm⁻¹, Force Const: 3.670109e+01 eV/Å²
C       -2.63922453       1.40241468      -0.98355371      -0.00013358      -0.00102501      -0.00046734
C       -1.59257531       0.86014408      -0.04761668      -0.00010676       0.00013147       0.00000375
O       -1.22461414       1.48694646       0.93502694       0.00001988       0.00001042      -0.00001572
N       -1.09454215      -0.35613394      -0.35776803      -0.00016204       0.00002978      -0.00020911
C       -0.11074745      -1.04680049       0.45681641       0.00022197       0.00049220       0.00255675
C       -0.23081213      -2.54309654       0.27696225       0.04052375      -0.01052889       0.02551772
C        1.31747937      -0.57210827       0.14318791       0.00063851      -0.00063855      -0.00055371
O        2.13275218      -1.29788780      -0.39559829      -0.00045649       0.00009612       0.00017141
N        1.55728734       0.68996668       0.53801847      -0.00062739       0.00035724       0.00033921
C        2.82501221       1.33670306       0.32674882       0.03592734      -0.06100355      -0.03115898
H       -3.58096123       1.48841727      -0.44024119      -0.00154613      -0.00008086       0.00086339
H       -2.34339690       2.40418506      -1.29248571       0.00222457       0.00713619      -0.00229366
H       -2.79553556       0.78267336      -1.86594999       0.00116510       0.00510818       0.00717711
H       -1.38900709      -0.80016917      -1.20894396      -0.00009670       0.00153945      -0.00001786
H       -0.32834715      -0.77269650       1.49111676       0.00442574      -0.00683662      -0.02447867
H       -1.23846102      -2.87046957       0.53240800      -0.20806235      -0.07029778       0.05971212
H        0.48587266      -3.05349898       0.91744930      -0.30786315       0.22156604      -0.27727762
H       -0.00292823      -2.82970667      -0.75048590       0.02912554      -0.02744830      -0.08834223
H        0.77503353       1.20680821       0.91902333       0.00852261      -0.00882456      -0.00459711
H        3.52207732       0.59476453      -0.05676650      -0.50657266       0.52939260       0.27414638
H        3.21502948       1.74136543       1.26161313       0.09291031       0.08575082       0.22435145
H        2.74027705       2.14842558      -0.39891735      -0.01468873       0.12067410      -0.12464609
22
Mode 64, Freq: 3542.5752 cm⁻¹, Force Const: 4.615068e+01 eV/Å²
C       -2.63922453       1.40241468      -0.98355371       0.00010786      -0.00014698       0.00017251
C       -1.59257531       0.86014408      -0.04761668      -0.00035214      -0.00304979      -0.00298286
O       -1.22461414       1.48694646       0.93502694       0.00080298       0.00140820       0.00159430
N       -1.09454215      -0.35613394      -0.35776803      -0.00067244       0.00100635      -0.00002369
C       -0.11074745      -1.04680049       0.45681641       0.00020093      -0.00000259       0.00053895
C       -0.23081213      -2.54309654       0.27696225       0.00004343       0.00015086      -0.00003961
C        1.31747937      -0.57210827       0.14318791      -0.00060805       0.00110518       0.00057828
O        2.13275218      -1.29788780      -0.39559829       0.00079330      -0.00156494      -0.00089578
N        1.55728734       0.68996668       0.53801847      -0.05687498       0.03883047       0.02884090
C        2.82501221       1.33670306       0.32674882       0.00100651       0.00016870      -0.00013195
H       -3.58096123       1.48841727      -0.44024119      -0.00086835       0.00023199       0.00004178
H       -2.34339690       2.40418506      -1.29248571       0.00022529       0.00041878      -0.00025681
H       -2.79553556       0.78267336      -1.86594999       0.00124141       0.00186461       0.00370465
H       -1.38900709      -0.80016917      -1.20894396       0.00213739       0.00456646       0.00618524
H       -0.32834715      -0.77269650       1.49111676       0.00079295      -0.00260552      -0.00509261
H       -1.23846102      -2.87046957       0.53240800      -0.00197289      -0.00117967       0.00049148
H        0.48587266      -3.05349898       0.91744930       0.00031998       0.00069908      -0.00049996
H       -0.00292823      -2.82970667      -0.75048590       0.00070487       0.00026446       0.00013012
H        0.77503353       1.20680821       0.91902333       0.75213873      -0.52903879      -0.38498807
H        3.52207732       0.59476453      -0.05676650       0.01787503      -0.00834899      -0.00712089
H        3.21502948       1.74136543       1.26161313      -0.00160203      -0.00009890       0.00001626
H        2.74027705       2.14842558      -0.39891735      -0.00140858       0.00329438      -0.00191837
22
Mode 65, Freq: 3673.7937 cm⁻¹, Force Const: 4.963287e+01 eV/Å²
C       -2.63922453       1.40241468      -0.98355371      -0.00001855       0.00004792       0.00009205
C       -1.59257531       0.86014408      -0.04761668       0.00143533      -0.00122220       0.00107884
O       -1.22461414       1.48694646       0.93502694      -0.00034771      -0.00056561      -0.00091773
N       -1.09454215      -0.35613394      -0.35776803       0.02138401       0.03319488       0.06168601
C       -0.11074745      -1.04680049       0.45681641      -0.00124316       0.00081318       0.00003846
C       -0.23081213      -2.54309654       0.27696225       0.00024941      -0.00024218      -0.00006443
C        1.31747937      -0.57210827       0.14318791      -0.00021820      -0.00005580       0.00000075
O        2.13275218      -1.29788780      -0.39559829       0.00005016       0.00002010      -0.00001007
N        1.55728734       0.68996668       0.53801847      -0.00028152       0.00042204       0.00018631
C        2.82501221       1.33670306       0.32674882      -0.00003512      -0.00003448       0.00002808
H       -3.58096123       1.48841727      -0.44024119       0.00046681      -0.00048807      -0.00018889
H       -2.34339690       2.40418506      -1.29248571       0.00025188      -0.00041705      -0.00015013
H       -2.79553556       0.78267336      -1.86594999      -0.00090005      -0.00152271      -0.00270199
H       -1.38900709      -0.80016917      -1.20894396      -0.29470131      -0.44179824      -0.84406430
H       -0.32834715      -0.77269650       1.49111676       0.00094600      -0.00094050      -0.00901332
H       -1.23846102      -2.87046957       0.53240800      -0.00075807      -0.00026951       0.00040799
H        0.48587266      -3.05349898       0.91744930      -0.00083366       0.00014139      -0.00038583
H       -0.00292823      -2.82970667      -0.75048590      -0.00032299      -0.00051487      -0.00001793
H        0.77503353       1.20680821       0.91902333       0.00490751      -0.00446331      -0.00271325
H        3.52207732       0.59476453      -0.05676650       0.00030655      -0.00016943      -0.00013218
H        3.21502948       1.74136543       1.26161313       0.00010683       0.00002479       0.00016474
H        2.74027705       2.14842558      -0.39891735      -0.00000593       0.00020455      -0.00023250
