22
Optimized structure, Energy: -40.423313 eV, Temperature: 300.0 K
C -2.63922453 1.40241468 -0.98355371
C -1.59257531 0.86014408 -0.04761668
O -1.22461414 1.48694646 0.93502694
N -1.09454215 -0.35613394 -0.35776803
C -0.11074745 -1.04680049 0.45681641
C -0.23081213 -2.54309654 0.27696225
C 1.31747937 -0.57210827 0.14318791
O 2.13275218 -1.29788780 -0.39559829
N 1.55728734 0.68996668 0.53801847
C 2.82501221 1.33670306 0.32674882
H -3.58096123 1.48841727 -0.44024119
H -2.34339690 2.40418506 -1.29248571
H -2.79553556 0.78267336 -1.86594999
H -1.38900709 -0.80016917 -1.20894396
H -0.32834715 -0.77269650 1.49111676
H -1.23846102 -2.87046957 0.53240800
H 0.48587266 -3.05349898 0.91744930
H -0.00292823 -2.82970667 -0.75048590
H 0.77503353 1.20680821 0.91902333
H 3.52207732 0.59476453 -0.05676650
H 3.21502948 1.74136543 1.26161313
H 2.74027705 2.14842558 -0.39891735
