490
Solvated with water, padding=4.0, opt=layerwise, energy=-963.88482666
C -2.62261152 1.41096783 -0.98594451
C -1.59098935 0.85421306 -0.04231151
O -1.23138583 1.47101724 0.94973660
N -1.09646595 -0.36304417 -0.35486123
C -0.11296211 -1.05331385 0.46038955
C -0.23153196 -2.55044007 0.28505540
C 1.31306112 -0.57428396 0.14288795
O 2.12689543 -1.29507077 -0.40470061
N 1.55119801 0.68767583 0.53998286
C 2.81276250 1.34271824 0.31656912
H -3.57302332 1.48628771 -0.45633253
H -2.32298136 2.41836548 -1.27198207
H -2.76381874 0.80650157 -1.88133419
H -1.37575650 -0.79635072 -1.21688414
H -0.33211240 -0.77709770 1.49362338
H -1.23908114 -2.87783813 0.54089707
H 0.48427764 -3.05805445 0.92893595
H -0.00247321 -2.84176207 -0.74075127
H 0.77111006 1.19951725 0.93168348
H 3.50959587 0.60684323 -0.07876989
H 3.21150279 1.74577904 1.24838364
H 2.71478176 2.15734911 -0.40429491
O 0.38995636 0.77697313 3.54430246
H 0.41926789 -0.19730391 3.66142130
H -0.53263652 1.01431084 3.32770872
O -0.76012117 4.27861023 4.37296152
H -0.37911099 3.47309661 4.73226881
H -1.05475295 4.08057594 3.45137048
O -0.28955561 0.00501058 -3.99730849
H -0.12549682 0.61561084 -3.26007438
H 0.07574477 0.47813079 -4.76905107
O 3.14041138 0.93439907 3.76343274
H 3.45484567 1.81572521 4.08095026
H 2.19648576 1.03785288 3.55764484
O 0.50043392 -2.48963022 -4.08119392
H 1.28311777 -2.49493361 -4.67518950
H 0.24208663 -1.53791678 -3.95921564
O -1.68891239 -3.09543777 4.22336960
H -1.28010559 -3.98997831 4.12926149
H -2.27234960 -3.15713525 5.00709009
O -0.35391614 4.58659267 -1.58964300
H 0.35086676 4.74683475 -0.92020237
H -0.00369891 4.96384048 -2.42605662
O -1.47182739 4.04781294 1.80459702
H -1.30410683 3.14314890 1.46428585
H -2.42169785 4.18858385 1.64103913
O -5.11504889 3.14696240 -2.00215316
H -5.28863049 2.73654842 -1.13698554
H -4.35825872 3.75061846 -1.87576604
O 4.81710100 -1.20000720 -0.31765723
H 5.06081343 -2.03169727 -0.77250701
H 3.83780742 -1.23985159 -0.32437077
O 2.97855067 2.21318412 -2.87965989
H 3.50951457 3.02739954 -2.87160468
H 3.61300063 1.53701568 -2.59789157
O 0.66810703 -1.83840144 4.09811640
H 1.31860673 -2.46614361 3.73269153
H -0.19449580 -2.30842876 4.18039942
O 0.86115706 -5.35511827 -1.18410504
H 1.42780745 -4.70739555 -1.66938889
H 1.11214173 -6.27151346 -1.43601334
O -3.02972722 4.92283678 -1.31775999
H -2.06100702 4.75489235 -1.37960887
H -3.29003286 4.78238726 -0.38810751
O -2.87750220 -5.43901157 0.75967699
H -3.45151806 -5.67364740 1.52347147
H -3.17101121 -4.55492592 0.45697066
O -5.50518370 2.24054098 0.75168008
H -6.47436142 2.12836647 0.90683830
H -5.11636496 1.42225981 1.09962058
O 2.21046710 -3.30990505 -2.18835688
H 2.11825466 -2.62863302 -1.49112797
H 1.58619559 -3.00985408 -2.89346170
O 1.72901261 3.97273088 2.59534669
H 2.62090802 4.31691504 2.77477932
H 1.15109980 4.40000296 3.23732328
O 4.41962862 4.11013079 -0.00109733
H 3.44387960 4.16531754 -0.04499972
H 4.69173717 4.22177505 -0.92841339
O -3.82270956 -3.06008196 -0.13495010
H -3.32481456 -2.63033628 -0.87507892
H -4.18512297 -2.34026527 0.39578003
O 5.22517776 0.53625685 -2.39986610
H 6.04549456 1.00283825 -2.21050358
H 5.12122536 -0.10263228 -1.66198587
O -4.34369659 -0.37082103 1.20627296
H -4.18727589 -0.76437593 2.11255145
H -3.46006680 -0.17412686 0.88745642
O 5.10335159 -0.04656835 2.20423746
H 4.97048235 -0.53321910 1.36907578
H 4.23749542 0.19640572 2.59615397
O 1.77656722 4.79918385 0.02783275
H 1.61914909 4.57607794 0.97026604
H 2.19640660 5.68754578 -0.00808381
O 5.95050955 2.43069935 1.43373442
H 5.57606888 1.56236887 1.69828141
H 5.28575659 2.96045208 0.93978786
O 0.32230058 2.10364246 -2.38441348
H 0.07149386 2.94358253 -1.95027089
H 1.28629541 2.16792774 -2.55861592
O -0.29565707 -5.88330030 1.26903450
H -1.24952090 -5.69196224 1.10973930
H 0.16685769 -5.54321480 0.48369202
O -4.15670395 4.50404978 1.11767554
H -4.68448973 3.69032454 1.27353716
H -4.33817244 5.22508764 1.75992191
O -3.81418586 -1.57389390 3.42085481
H -2.97018838 -2.06384325 3.45584273
H -3.87421012 -1.12441850 4.29731035
O 3.15185738 -4.87878513 0.58622175
H 3.01970196 -4.29662514 1.35871506
H 2.33008790 -4.85091114 0.08194028
O -1.43587816 -4.55659056 -2.49045515
H -2.10316133 -5.24644518 -2.45638251
H -0.68981075 -4.87535334 -1.93979108
O -2.54196215 -2.02971768 -2.21361542
H -3.31106925 -1.78964376 -2.77414107
H -2.13540149 -2.85008574 -2.54144621
O -4.18081713 1.41560864 -3.92238283
H -4.64323092 2.00108171 -3.29130101
H -4.43370724 0.49349806 -3.68732595
O -8.14901161 -2.38284588 0.11078218
H -7.84938526 -3.14439917 0.64364463
H -8.60834408 -1.78577721 0.72935313
O -6.28803492 0.73373622 5.12220192
H -5.61820745 0.32501453 5.69084883
H -6.73867846 -0.04387566 4.71158266
O -2.07814169 -5.39525223 6.89439011
H -1.58187497 -5.66704941 6.11774302
H -1.41294789 -5.00967598 7.52368116
O -0.47980851 -5.67354345 -4.86513042
H -1.32884860 -5.55482721 -5.34820890
H -0.55409271 -5.01244450 -4.15707779
O 6.24233198 -4.62838268 3.75818181
H 6.77871609 -4.47363710 2.96944237
H 5.90025854 -3.74144030 3.96607876
O -6.56159210 0.80895323 -7.51826286
H -6.64822721 1.33920312 -8.31702137
H -5.68076849 1.07441413 -7.16208887
O 6.83093309 3.37252784 3.78087473
H 6.53548670 3.13517356 2.87130213
H 6.77583361 4.34618998 3.87792563
O 7.69044828 1.66100669 -0.45996752
H 7.04041338 1.93671238 0.22612737
H 8.50443268 2.11346745 -0.16976631
O 1.51919508 -4.98817110 -6.61974192
H 0.77729917 -5.22144413 -6.01920795
H 1.11885226 -4.75410843 -7.46048737
O 6.78823137 -2.72233534 -3.89714193
H 7.10125446 -3.64392042 -3.94345045
H 6.58254814 -2.40770197 -4.80626249
O 2.75235629 -2.92659783 -5.46527910
H 2.99182987 -2.17445445 -6.01807594
H 2.37087679 -3.61693096 -6.05375957
O 2.57638526 5.49584532 5.45153618
H 3.32419252 5.86834478 5.97454357
H 3.01507401 4.74382925 5.01586628
O 5.12162256 -2.12758398 4.00371599
H 5.26988602 -1.41404569 3.35342956
H 4.73720503 -1.68439376 4.79073429
O 1.79203689 3.64331913 7.46592331
H 1.84107280 4.36431408 6.81729317
H 1.31152081 2.92467451 7.02179909
O 3.90254736 -5.96810818 3.78296256
H 4.81729650 -5.60680676 3.81696367
H 3.86953568 -6.56987047 3.01699615
O 5.87651873 7.34896088 0.19895484
H 6.55616570 6.63140726 0.18104307
H 6.34071159 8.14898205 0.44644767
O 7.32654381 1.34263444 5.68239689
H 7.08006048 2.09069443 5.11934900
H 7.56539345 0.60711771 5.07308245
O -0.16156285 6.64484119 1.82121181
H -0.46610346 5.73706150 1.67122412
H -0.96272200 7.19215727 1.76770353
O -2.75631762 -7.67911863 -0.76895452
H -2.79140306 -6.81534100 -0.30466610
H -2.16637635 -7.59486723 -1.54630971
O 0.42893383 1.55490577 6.14424038
H 0.46104375 1.38237035 5.17795610
H 0.76150620 0.69477612 6.49000168
O -1.49014139 2.73264384 -6.77729750
H -1.57818055 2.89105248 -5.81533718
H -2.36334133 2.37750316 -7.00097990
O -4.04720116 6.53757811 5.07625628
H -3.16203117 6.92880535 5.19793320
H -3.89331722 5.61881018 5.38155079
O -2.27070022 1.43388593 6.55796194
H -1.29477823 1.52006412 6.56911945
H -2.63736773 2.33248782 6.58822346
O -3.15685296 7.64384651 -4.22896433
H -3.68622804 8.32749367 -4.64018583
H -3.11581469 7.84969139 -3.27698493
O -6.53489351 5.62083149 -0.18524468
H -5.72930002 5.12510490 0.02429711
H -6.85504770 5.29881525 -1.07050335
O 1.14298797 -8.03116894 -1.45320415
H 1.92091286 -8.56527042 -1.75828838
H 0.97102737 -8.29863930 -0.53454965
O 0.56901318 -2.14530587 -8.08891964
H 0.02254515 -1.50863862 -8.59828663
H 1.27479947 -1.61341691 -7.69944811
O 7.09565210 -4.52505255 -0.63727754
H 7.57348299 -4.80290031 -1.42827117
H 6.32658720 -4.04110670 -0.97664636
O 6.49561262 -1.34738970 -6.18241405
H 7.37636328 -0.96508247 -6.19902420
H 5.91229820 -0.62298876 -5.87641907
O 4.11218405 3.20460200 4.75590611
H 5.00470638 3.30535173 4.38893175
H 4.25441933 3.15563035 5.73660994
O -1.06241035 6.36839628 -5.68512154
H -1.60147059 5.63956976 -6.01074934
H -1.69810522 6.95674038 -5.24840117
O 6.19073772 5.95908642 4.08070755
H 5.42733574 5.87889051 3.45011568
H 6.72930956 6.68918657 3.77458262
O -7.49233627 -1.43390250 4.17525625
H -6.96333265 -2.23779368 4.06317282
H -7.97856140 -1.27109718 3.35321188
O -3.27498198 3.95785117 5.69468403
H -3.83250618 3.43409085 5.07682800
H -2.43074346 4.09151745 5.23051882
O -2.39946103 8.19053841 1.23348403
H -3.09115219 7.73429823 1.77200353
H -2.30063415 9.07878304 1.58016741
O 4.78267097 4.32314444 -2.82415867
H 4.46228695 5.24416161 -2.94280744
H 5.76026726 4.30361557 -2.73982763
O 4.15575790 5.47043943 2.47210908
H 4.38565731 5.32109022 1.54193759
H 3.49663901 6.20622587 2.53601336
O -1.29301929 -2.71137190 -6.20643234
H -0.80536491 -2.67465353 -5.36220121
H -0.60217661 -2.57151341 -6.89419556
O -9.01599026 -0.54398096 1.94874573
H -8.69604492 0.32810324 1.60548854
H -9.92177200 -0.41067910 2.23016143
O -5.85788012 -4.74203825 -1.03544736
H -5.51501417 -5.53311539 -1.52537537
H -5.11260843 -4.13750076 -0.88169384
O -6.41904974 4.92336273 -5.24782276
H -5.45748281 4.82202578 -5.10911036
H -6.79874849 5.04122591 -4.36573553
O 0.75049645 1.41126645 -6.17489243
H 1.19693768 2.24672651 -5.91272020
H -0.08279080 1.71991658 -6.59625816
O -4.09101105 1.47753000 -6.62393188
H -3.65017653 0.60562563 -6.77357292
H -4.17909288 1.55655444 -5.64949369
O -4.85854721 -1.09832847 -3.18640208
H -5.48006678 -1.58169162 -3.78503823
H -5.35630512 -1.01964474 -2.34472752
O -3.64979148 -3.42959595 6.15903759
H -3.14909983 -4.20256281 6.54004192
H -4.42449665 -3.77970695 5.70779991
O -4.86372042 2.65615010 3.92196918
H -5.40635252 1.92337668 4.30155230
H -5.47342062 3.40582561 3.82371211
O 7.36419582 3.69955945 -2.32726002
H 7.39834356 2.97712970 -1.67063284
H 7.86905575 3.33926463 -3.07987952
O 5.14778948 -8.50450993 -0.54280162
H 4.67698431 -8.16846275 0.24043724
H 5.27581167 -7.72393703 -1.10495973
O -4.35325336 -6.19483471 2.89466906
H -3.85400438 -6.96542597 3.24919462
H -4.40648556 -5.48586988 3.54733682
O -0.36082870 -4.19571924 8.53069401
H -0.64316845 -3.26883626 8.45339870
H 0.51515180 -4.23127317 8.11014080
O -8.02049828 2.92565227 -6.01306677
H -7.53825712 2.30749011 -6.57779741
H -7.39101744 3.65053773 -5.79623222
O -9.03468609 1.59678483 -4.03634644
H -8.64774323 2.17887902 -4.75611448
H -9.97382832 1.78411865 -4.01858950
O -5.59550476 -3.65253162 3.74350429
H -4.97543001 -2.92770767 3.53245950
H -6.00565767 -3.92391467 2.89855504
O -6.94993114 -4.50300598 1.43298614
H -6.51431417 -4.75719929 0.59108835
H -7.24430847 -5.34364557 1.83333361
O 3.25514221 -9.44056225 -2.13922930
H 3.99625325 -9.20095730 -1.52436793
H 3.22638583 -10.39558315 -2.18516064
O 9.45903206 2.58079815 3.24906278
H 8.58238697 2.86384034 3.56859994
H 9.52955055 1.65026796 3.47353148
O -8.12802601 1.78348541 0.98238701
H -8.23709488 1.82999527 0.00409893
H -8.64198589 2.50181222 1.42555678
O 1.05303085 8.61977863 0.13329813
H 0.64646894 7.93851709 0.68866533
H 0.59277886 8.54262257 -0.72627544
O -6.71193838 -2.44134402 -4.56510496
H -7.32526827 -1.79000163 -4.98345518
H -7.21084166 -2.82917738 -3.79649711
O -7.73451614 1.58646226 -1.60044205
H -7.24247169 0.75337595 -1.49924004
H -8.22042847 1.54386818 -2.44464755
O 2.79343414 -3.50222635 3.04626250
H 3.57153773 -2.96692109 3.29115868
H 3.00748944 -4.37936878 3.42233276
O 3.13061428 7.10232639 -0.38209841
H 4.02367258 7.29261637 -0.04846422
H 2.50471735 7.83048153 -0.13618296
O -3.97698045 -0.69759274 5.97384453
H -3.29241347 -0.09800931 6.31681395
H -3.81317043 -1.58254504 6.34544420
O -5.01592398 -6.92030430 -2.25909090
H -4.57824278 -6.96608019 -3.12992597
H -4.40687513 -7.38833094 -1.66808879
O 3.37907815 6.64157534 -3.05935454
H 3.22553539 6.87169981 -2.11964226
H 2.50966001 6.43951321 -3.43285394
O 4.78502178 0.53476518 -5.18543768
H 3.92135119 0.22378904 -5.49959755
H 4.82098818 0.42174304 -4.21847868
O 5.56970358 0.76834238 7.47358227
H 5.99346066 0.31316233 8.20168209
H 6.29162407 0.98542720 6.80638599
O -0.43720391 -5.42868757 3.98789048
H 0.34533623 -5.78074837 4.45698452
H -0.26311237 -5.56824160 3.04245114
O 4.51265860 3.34602332 -5.48070192
H 4.72691107 3.70090389 -4.60106516
H 4.67541122 2.38880038 -5.41509962
O -2.93060827 7.62431908 -1.49854553
H -2.72705936 7.94080448 -0.60200828
H -3.03749156 6.64993334 -1.42279756
O 2.25061107 7.13546896 3.22320938
H 2.22831774 6.69151402 4.09135532
H 1.36430883 7.03435087 2.84017897
O -7.84111643 -3.57892227 -2.48315525
H -7.12034798 -4.03688622 -2.00047255
H -8.29279613 -3.08050060 -1.79114473
O -7.95577765 5.97435999 2.04238677
H -7.43885660 5.83791161 1.21442676
H -8.16074944 6.91075277 2.07572007
O 7.88219643 -3.35255623 1.61049366
H 8.78726864 -3.57129407 1.83856845
H 7.68524361 -3.82213831 0.76764381
O -6.28372383 -0.72656476 -0.88591015
H -6.93507099 -1.39576495 -0.56516290
H -5.71000719 -0.54131836 -0.12797907
O 3.50397754 -7.38326454 1.43965709
H 2.66504169 -7.85550976 1.45395958
H 3.32034326 -6.48980999 1.05871654
O -1.10428131 -7.67879629 -2.95999074
H -0.81164432 -7.03323984 -3.63020849
H -0.28509310 -7.95894718 -2.50356007
O 8.43096733 -0.59135473 1.37567735
H 8.11948872 -1.49524045 1.21057343
H 8.08404160 -0.01774730 0.67971289
O -4.30560684 6.79912663 2.45539689
H -5.02890635 7.33548164 2.07962584
H -4.31420708 6.77435446 3.44729328
O 1.95402622 3.78910017 -5.66326141
H 2.94194531 3.61632204 -5.59803343
H 1.83254063 4.30032444 -6.46619368
O 7.73989868 5.48605537 -0.15589613
H 7.67071629 5.10061646 -1.04346526
H 8.30963707 4.87589645 0.33368555
O 3.87313008 -0.67146724 5.91325378
H 4.46858692 -0.17237623 6.51157999
H 3.56935167 -0.04451289 5.22593307
O -3.69528437 4.93534136 -4.92343950
H -3.58134484 5.83117867 -4.57229757
H -3.09592772 4.35887623 -4.42531157
O 2.60457969 -0.29988775 -6.84481335
H 1.87034249 0.35057604 -6.66556311
H 3.07058644 0.02690432 -7.61684036
O 4.98673058 -3.30001688 -2.00179505
H 4.03289986 -3.31461549 -2.21274328
H 5.48739386 -2.99475336 -2.79008389
O -7.34505892 4.61104918 -2.48380208
H -8.19052315 4.20392847 -2.25072193
H -6.67379522 3.89948320 -2.43596554
O 0.52518821 -8.44315624 1.32567024
H -0.27204457 -8.99745750 1.23550975
H 0.17371988 -7.52313566 1.37819612
O 1.26236510 -0.94910800 6.62081623
H 2.23755884 -0.94805419 6.64506960
H 1.05692267 -1.36425149 5.75654459
O 0.77166873 5.58515739 -3.88646984
H 1.23996186 4.87029505 -4.35975885
H 0.10938068 5.89812851 -4.54695511
O -1.90532446 2.91389942 -4.07557964
H -1.10466087 2.65649486 -3.59101176
H -2.55523515 2.19509912 -3.95015240
O 8.02068424 -0.65462458 4.04655552
H 7.39986706 -1.38283134 4.14260721
H 8.11779404 -0.53051353 3.07822466
O 9.52317810 3.36750174 0.72308409
H 10.42770386 3.56430769 0.47753155
H 9.55606842 3.05612183 1.66211510
O -3.06803775 -0.91382092 -7.21026516
H -2.47855949 -1.49218333 -6.68320704
H -3.91174698 -1.40337074 -7.34379339
O 4.43216896 3.28167057 7.38175917
H 4.78767014 2.42226839 7.66492462
H 3.47140098 3.32023454 7.60544634
O -2.03793669 -9.47351551 1.02664828
H -2.33068252 -8.83804798 0.32018471
H -2.30962014 -10.34288311 0.72884578
O -7.00273371 -6.94403124 2.66558027
H -6.05244541 -6.75199032 2.78295255
H -7.35866547 -7.05368710 3.54781437
O -5.80989122 8.10188103 0.60454786
H -5.14376545 8.51600361 0.05031053
H -6.07372904 7.29831171 0.11649415
O -8.28536224 -0.59065646 -5.66787434
H -8.61376953 0.06495672 -5.02936602
H -7.82632542 -0.07811206 -6.34759283
O -5.54788399 -1.90463388 -7.50551891
H -6.04917192 -1.08543456 -7.63693953
H -5.93733597 -2.32255244 -6.73107243
O -2.79055762 -5.03358412 -6.12674618
H -2.34477282 -4.17839861 -6.28057241
H -3.66726851 -4.81484890 -5.74916792
O 8.66854286 2.17389369 -4.18555927
H 8.89491081 2.35677695 -5.09690189
H 8.57623863 1.20797038 -4.11580133
O -0.22184877 8.13925076 -2.26222801
H -1.13972187 7.87666607 -2.08573413
H 0.18178917 7.40671968 -2.73582220
O -5.54353094 3.48196936 -8.26515388
H -5.84959507 4.23562574 -7.75534725
H -4.82876492 3.10245180 -7.74206781
O -9.47678757 3.56267929 2.41831064
H -9.12638092 4.46281242 2.37259769
H -9.20972538 3.24041653 3.30714536
O 6.21511459 7.14747429 -2.73323917
H 6.05350351 7.34392691 -1.80209756
H 5.37507248 7.33027172 -3.16445303
O 7.36668825 -5.36187410 -3.38535738
H 7.85685062 -6.04067612 -3.85021067
H 6.52301121 -5.78075457 -3.09729314
O -1.30205715 6.93614626 5.21888351
H -0.96479207 6.05991125 4.97469234
H -0.79079407 7.20599937 5.98264742
O 8.65155125 -0.62576151 -4.05209494
H 9.47543430 -0.87513083 -3.63208628
H 8.01563931 -1.33300459 -3.83159900
O 5.05440140 -6.27279902 -2.29931712
H 4.29032135 -6.22998381 -2.90870643
H 4.94430399 -5.49788952 -1.73491895
O -6.51862907 4.93638372 4.16444874
H -6.03546953 5.61289215 4.64896536
H -7.00208044 5.38731670 3.44728541
O -1.06508374 -1.54916501 7.92513084
H -1.33083236 -0.87192374 8.54760456
H -0.18514740 -1.29115283 7.59768438
O -8.39532757 2.90384054 4.84964705
H -7.75408363 3.62775946 4.88175631
H -7.88569880 2.11353898 5.07245588
O 1.73161054 -6.61994171 5.22709465
H 1.53087425 -7.55214882 5.03093767
H 2.58553600 -6.43847275 4.78427172
O 1.09708190 -9.07060719 4.03528404
H 1.64014256 -9.85882378 4.04786825
H 0.91872209 -8.88361263 3.09698963
O -1.23700249 -0.42865407 -9.18410778
H -1.16339171 0.51979047 -9.29525948
H -1.98888290 -0.56819254 -8.57268047
O 4.91141510 6.01757717 6.69269943
H 5.02491188 5.12359095 7.04868937
H 5.49683094 6.07434893 5.92372751
O 2.98132467 -5.63732004 -3.99990249
H 3.03783202 -4.69523907 -4.19776297
H 2.78065658 -6.04285383 -4.84716558
O -2.22439289 1.38507998 3.77042770
H -3.04770565 1.77074158 3.44809794
H -2.33834505 1.31651783 4.73568678
O -5.19877148 -4.70928907 -4.91528940
H -5.75019360 -5.48727322 -4.81893444
H -5.79328203 -3.93751550 -4.88964128
O -3.14033222 -8.51859856 3.43621159
H -3.75625348 -9.17489243 3.76324344
H -2.74980783 -8.89598370 2.62695432
O 1.90652740 -4.45801735 6.95729113
H 2.83768654 -4.29168224 7.10182142
H 1.84791911 -5.30842972 6.49007511
O -9.60571003 4.31701374 -0.72294909
H -10.14299011 3.80496645 -0.11332607
H -9.08989811 4.89044809 -0.15292531
O -3.55119443 -7.38958979 -4.54641914
H -2.78189087 -7.86134672 -4.20801878
H -3.20405030 -6.71353912 -5.14271736
